     Program PWSCF v.6.7MaX starts on 15Nov2021 at 14: 8:48

     R & G space division:  proc/nbgrp/npool/nimage =      10
     Waiting for input...
     Reading input from standard input

     Current dimensions of program PWSCF are:
     Max number of different atomic species (ntypx) = 10
     Max number of k-points (npk) =  40000
     Max angular momentum in pseudopotentials (lmaxx) =  3
     file Mo.pbe-spn-kjpaw_psl.0.2.UPF: wavefunction(s)  4D renormalized
     file S.pbe-n-kjpaw_psl.0.1.UPF: wavefunction(s)  3P renormalized

     Message from routine setup:
     using ibrav=0 with symmetry is DISCOURAGED, use correct ibrav instead

     bravais-lattice index     =            0
     lattice parameter (alat)  =       5.9830  a.u.
     unit-cell volume          =     671.9051 (a.u.)^3
     number of atoms/cell      =            3
     number of atomic types    =            2
     number of electrons       =        26.00
     number of Kohn-Sham states=           13
     kinetic-energy cutoff     =      50.0000  Ry
     charge density cutoff     =     500.0000  Ry
     scf convergence threshold =      1.0E-08
     mixing beta               =       0.5000
     number of iterations used =            8  local-TF  mixing
     Exchange-correlation= SLA  PW   PBX  PBC
                           (   1   4   3   4   0   0   0)

     celldm(1)=   5.983000  celldm(2)=   0.000000  celldm(3)=   0.000000
     celldm(4)=   0.000000  celldm(5)=   0.000000  celldm(6)=   0.000000

     crystal axes: (cart. coord. in units of alat)
               a(1) = (   1.008068   0.000000   0.000000 )
               a(2) = (  -0.504034   0.872904   0.000000 )
               a(3) = (   0.000000   0.000000   3.565287 )

     reciprocal axes: (cart. coord. in units 2 pi/alat)
               b(1) = (  0.991997  0.572800  0.000000 )
               b(2) = (  0.000000  1.145601  0.000000 )
               b(3) = (  0.000000  0.000000  0.280482 )

     PseudoPot. # 1 for Mo read from file:
     ../Pseudo/Mo.pbe-spn-kjpaw_psl.0.2.UPF
     MD5 check sum: 99c4efbabb9e14294ed14bd31c5e2f8a
     Pseudo is Projector augmented-wave + core cor, Zval = 14.0
     Generated using "atomic" code by A. Dal Corso  v.5.0.2 svn rev. 9415
     Shape of augmentation charge: PSQ
     Using radial grid of 1229 points,  6 beta functions with:
                l(1) =   0
                l(2) =   0
                l(3) =   1
                l(4) =   1
                l(5) =   2
                l(6) =   2
     Q(r) pseudized with 0 coefficients

     PseudoPot. # 2 for S  read from file:
     ../Pseudo/S.pbe-n-kjpaw_psl.0.1.UPF
     MD5 check sum: 5138ed5699b2c5d2fdac7c35a9631f5b
     Pseudo is Projector augmented-wave + core cor, Zval =  6.0
     Generated using "atomic" code by A. Dal Corso  v.5.0.2 svn rev. 9415
     Shape of augmentation charge: PSQ
     Using radial grid of 1151 points,  4 beta functions with:
                l(1) =   0
                l(2) =   0
                l(3) =   1
                l(4) =   1
     Q(r) pseudized with 0 coefficients

     atomic species   valence    mass     pseudopotential
        Mo            14.00    95.94000     Mo( 1.00)
        S              6.00    32.06500     S ( 1.00)

      4 Sym. Ops. (no inversion) found

   Cartesian axes

     site n.     atom                  positions (alat units)
         1           Mo  tau(   1) = (   0.0000000   0.0030498   0.0000000  )
         2           S   tau(   2) = (   0.0000000   0.5850225   0.4949137  )
         3           S   tau(   3) = (   0.0000000   0.5850225  -0.4949137  )

     number of k points=    43
                       cart. coord. in units 2pi/alat
        k(    1) = (   0.0000000   0.0000000   0.0000000), wk =   0.0138889
        k(    2) = (   0.0000000   0.0954667   0.0000000), wk =   0.0277778
        k(    3) = (   0.0000000   0.1909335   0.0000000), wk =   0.0277778
        k(    4) = (   0.0000000   0.2864002   0.0000000), wk =   0.0277778
        k(    5) = (   0.0000000   0.3818669   0.0000000), wk =   0.0277778
        k(    6) = (   0.0000000   0.4773337   0.0000000), wk =   0.0277778
        k(    7) = (   0.0000000  -0.5728004   0.0000000), wk =   0.0138889
        k(    8) = (   0.0826664   0.0477334   0.0000000), wk =   0.0555556
        k(    9) = (   0.0826664   0.1432001   0.0000000), wk =   0.0555556
        k(   10) = (   0.0826664   0.2386668   0.0000000), wk =   0.0555556
        k(   11) = (   0.0826664   0.3341336   0.0000000), wk =   0.0555556
        k(   12) = (   0.0826664   0.4296003   0.0000000), wk =   0.0555556
        k(   13) = (   0.0826664   0.5250671   0.0000000), wk =   0.0555556
        k(   14) = (   0.1653328   0.0954667   0.0000000), wk =   0.0555556
        k(   15) = (   0.1653328   0.1909335   0.0000000), wk =   0.0555556
        k(   16) = (   0.1653328   0.2864002   0.0000000), wk =   0.0555556
        k(   17) = (   0.1653328   0.3818669   0.0000000), wk =   0.0555556
        k(   18) = (   0.1653328   0.4773337   0.0000000), wk =   0.0555556
        k(   19) = (   0.1653328   0.5728004   0.0000000), wk =   0.0277778
        k(   20) = (   0.1653328   0.0000000   0.0000000), wk =   0.0277778
        k(   21) = (   0.2479992   0.1432001   0.0000000), wk =   0.0555556
        k(   22) = (   0.2479992   0.2386668   0.0000000), wk =   0.0555556
        k(   23) = (   0.2479992   0.3341336   0.0000000), wk =   0.0555556
        k(   24) = (   0.2479992   0.4296003   0.0000000), wk =   0.0555556
        k(   25) = (   0.2479992   0.5250671   0.0000000), wk =   0.0555556
        k(   26) = (   0.2479992  -0.0477334   0.0000000), wk =   0.0555556
        k(   27) = (   0.3306656   0.1909335   0.0000000), wk =   0.0555556
        k(   28) = (   0.3306656   0.2864002   0.0000000), wk =   0.0555556
        k(   29) = (   0.3306656   0.3818669   0.0000000), wk =   0.0555556
        k(   30) = (   0.3306656   0.4773337   0.0000000), wk =   0.0555556
        k(   31) = (   0.3306656   0.5728004   0.0000000), wk =   0.0277778
        k(   32) = (   0.3306656  -0.0954667   0.0000000), wk =   0.0555556
        k(   33) = (   0.3306656   0.0000000   0.0000000), wk =   0.0277778
        k(   34) = (   0.4133320   0.2386668   0.0000000), wk =   0.0555556
        k(   35) = (   0.4133320   0.3341336   0.0000000), wk =   0.0555556
        k(   36) = (   0.4133320   0.4296003   0.0000000), wk =   0.0555556
        k(   37) = (   0.4133320   0.5250671   0.0000000), wk =   0.0555556
        k(   38) = (   0.4133320  -0.1432001   0.0000000), wk =   0.0555556
        k(   39) = (   0.4133320  -0.0477334   0.0000000), wk =   0.0555556
        k(   40) = (  -0.4959984  -0.2864002   0.0000000), wk =   0.0277778
        k(   41) = (  -0.4959984  -0.1909335   0.0000000), wk =   0.0555556
        k(   42) = (  -0.4959984  -0.0954667   0.0000000), wk =   0.0555556
        k(   43) = (  -0.4959984   0.0000000   0.0000000), wk =   0.0277778

     Check: negative core charge=   -0.000001

     Initial potential from superposition of free atoms

     starting charge   25.99864, renormalised to   26.00000
     Starting wfcs are   21 randomized atomic wfcs
     Checking if some PAW data can be deallocated...

     Self-consistent Calculation

     iteration #  1     ecut=    50.00 Ry     beta= 0.50
     Davidson diagonalization with overlap
     ethr =  1.00E-02,  avg # of iterations =  2.0

     total energy              =    -496.64648013 Ry
     estimated scf accuracy    <       0.51199281 Ry

[...]

     negative rho (up, down):  1.025E-07 0.000E+00

[...]

     total energy              =    -496.69024537 Ry
     estimated scf accuracy    <       0.00000026 Ry

     iteration # 27     ecut=    50.00 Ry     beta= 0.50
     Davidson diagonalization with overlap
     ethr =  1.29E-10,  avg # of iterations =  5.8

[...]

     End of self-consistent calculation

          k = 0.0000 0.0000 0.0000 (  4009 PWs)   bands (ev):

   -58.0960 -32.2187 -32.0210 -32.0208 -11.2323  -9.9528  -2.7653   0.2280
     0.2292   1.0634   1.3323   1.3338   2.8019

[...]

          k = 0.4133-0.0477 0.0000 (  3994 PWs)   bands (ev):

[...]

          k =-0.4960-0.2864 0.0000 (  4034 PWs)   bands (ev):

[...]

          k =-0.4960 0.0000 0.0000 (  3999 PWs)   bands (ev):

   -58.0598 -32.3142 -32.1725 -32.1459  -9.4195  -9.1810  -2.2534  -2.0527
    -0.7915  -0.3951  -0.0710   1.1694   2.3127

     highest occupied level (ev):     2.8092

!    total energy              =    -496.69024540 Ry

     total all-electron energy =     -9695.021632 Ry
     estimated scf accuracy    <          2.0E-09 Ry

     The total energy is the sum of the following terms:
     one-electron contribution =    -417.87314748 Ry
     hartree contribution      =     215.23234913 Ry
     xc contribution           =     -42.55225848 Ry
     ewald contribution        =      55.45275976 Ry
     one-center paw contrib.   =    -306.94994834 Ry

     convergence has been achieved in  27 iterations

     negative rho (up, down):  7.717E-08 0.000E+00

     Forces acting on atoms (cartesian axes, Ry/au):

     atom    1 type  1   force =     0.00000000    0.00005711    0.00000000
     atom    2 type  2   force =     0.00000000   -0.00002855   -0.00009084
     atom    3 type  2   force =     0.00000000   -0.00002855    0.00009084

     Total force =     0.000146     Total SCF correction =     0.000006

     Computing stress (Cartesian axis) and pressure

     negative rho (up, down):  7.717E-08 0.000E+00
          total   stress  (Ry/bohr**3)                   (kbar)     P=       -0.47
  -0.00000225   0.00000000   0.00000000           -0.33        0.00        0.00
   0.00000000  -0.00000163   0.00000000            0.00       -0.24        0.00
   0.00000000   0.00000000  -0.00000579            0.00        0.00       -0.85

     Writing output data file ./MoS2.save/

     General routines

     Parallel routines

   This run was terminated on:  14: 9:36  15Nov2021

   JOB DONE.