     Program PWSCF v.6.7MaX starts on 23Feb2022 at 11:46:57

     R & G space division:  proc/nbgrp/npool/nimage =      20
     Waiting for input...
     Reading input from standard input

     Current dimensions of program PWSCF are:
     Max number of different atomic species (ntypx) = 10
     Max number of k-points (npk) =  40000
     Max angular momentum in pseudopotentials (lmaxx) =  3
     file Mo.pbe-spn-kjpaw_psl.0.2.UPF: wavefunction(s)  4D renormalized
     file S.pbe-n-kjpaw_psl.0.1.UPF: wavefunction(s)  3P renormalized

     Message from routine setup:
     using ibrav=0 with symmetry is DISCOURAGED, use correct ibrav instead

     bravais-lattice index     =            0
     lattice parameter (alat)  =       5.9830  a.u.
     unit-cell volume          =     671.9051 (a.u.)^3
     number of atoms/cell      =            3
     number of atomic types    =            2
     number of electrons       =        26.00
     number of Kohn-Sham states=           13
     kinetic-energy cutoff     =      50.0000  Ry
     charge density cutoff     =     500.0000  Ry
     scf convergence threshold =      1.0E-08
     mixing beta               =       0.5000
     number of iterations used =            8  local-TF  mixing
     Exchange-correlation= SLA  PW   PBX  PBC
                           (   1   4   3   4   0   0   0)

     celldm(1)=   5.983000  celldm(2)=   0.000000  celldm(3)=   0.000000
     celldm(4)=   0.000000  celldm(5)=   0.000000  celldm(6)=   0.000000

     crystal axes: (cart. coord. in units of alat)
               a(1) = (   1.008068   0.000000   0.000000 )
               a(2) = (  -0.504034   0.872904   0.000000 )
               a(3) = (   0.000000   0.000000   3.565287 )

     reciprocal axes: (cart. coord. in units 2 pi/alat)
               b(1) = (  0.991997  0.572800  0.000000 )
               b(2) = (  0.000000  1.145601  0.000000 )
               b(3) = (  0.000000  0.000000  0.280482 )

     PseudoPot. # 1 for Mo read from file:
     ../Pseudo/Mo.pbe-spn-kjpaw_psl.0.2.UPF
     MD5 check sum: 99c4efbabb9e14294ed14bd31c5e2f8a
     Pseudo is Projector augmented-wave + core cor, Zval = 14.0
     Generated using "atomic" code by A. Dal Corso  v.5.0.2 svn rev. 9415
     Shape of augmentation charge: PSQ
     Using radial grid of 1229 points,  6 beta functions with:
                l(1) =   0
                l(2) =   0
                l(3) =   1
                l(4) =   1
                l(5) =   2
                l(6) =   2
     Q(r) pseudized with 0 coefficients

     PseudoPot. # 2 for S  read from file:
     ../Pseudo/S.pbe-n-kjpaw_psl.0.1.UPF
     MD5 check sum: 5138ed5699b2c5d2fdac7c35a9631f5b
     Pseudo is Projector augmented-wave + core cor, Zval =  6.0
     Generated using "atomic" code by A. Dal Corso  v.5.0.2 svn rev. 9415
     Shape of augmentation charge: PSQ
     Using radial grid of 1151 points,  4 beta functions with:
                l(1) =   0
                l(2) =   0
                l(3) =   1
                l(4) =   1
     Q(r) pseudized with 0 coefficients

     atomic species   valence    mass     pseudopotential
        Mo            14.00    95.94000     Mo( 1.00)
        S              6.00    32.06500     S ( 1.00)

      4 Sym. Ops. (no inversion) found

   Cartesian axes

     site n.     atom                  positions (alat units)
         1           Mo  tau(   1) = (   0.0000000   0.0030498   0.0000000  )
         2           S   tau(   2) = (   0.0000000   0.5850225   0.4949137  )
         3           S   tau(   3) = (   0.0000000   0.5850225  -0.4949137  )

     number of k points=    91
                       cart. coord. in units 2pi/alat
        k(    1) = (   0.0000000   0.0000000   0.0000000), wk =   0.0061728
        k(    2) = (   0.0000000   0.0636445   0.0000000), wk =   0.0123457
        k(    3) = (   0.0000000   0.1272890   0.0000000), wk =   0.0123457
        k(    4) = (   0.0000000   0.1909335   0.0000000), wk =   0.0123457
        k(    5) = (   0.0000000   0.2545780   0.0000000), wk =   0.0123457
        k(    6) = (   0.0000000   0.3182225   0.0000000), wk =   0.0123457
        k(    7) = (   0.0000000   0.3818669   0.0000000), wk =   0.0123457
        k(    8) = (   0.0000000   0.4455114   0.0000000), wk =   0.0123457
        k(    9) = (   0.0000000   0.5091559   0.0000000), wk =   0.0123457
        k(   10) = (   0.0000000  -0.5728004   0.0000000), wk =   0.0061728
        k(   11) = (   0.0551109   0.0318222   0.0000000), wk =   0.0246914
        k(   12) = (   0.0551109   0.0954667   0.0000000), wk =   0.0246914
        k(   13) = (   0.0551109   0.1591112   0.0000000), wk =   0.0246914
        k(   14) = (   0.0551109   0.2227557   0.0000000), wk =   0.0246914
        k(   15) = (   0.0551109   0.2864002   0.0000000), wk =   0.0246914
        k(   16) = (   0.0551109   0.3500447   0.0000000), wk =   0.0246914
        k(   17) = (   0.0551109   0.4136892   0.0000000), wk =   0.0246914
        k(   18) = (   0.0551109   0.4773337   0.0000000), wk =   0.0246914
        k(   19) = (   0.0551109   0.5409782   0.0000000), wk =   0.0246914
        k(   20) = (   0.1102219   0.0636445   0.0000000), wk =   0.0246914
        k(   21) = (   0.1102219   0.1272890   0.0000000), wk =   0.0246914
        k(   22) = (   0.1102219   0.1909335   0.0000000), wk =   0.0246914
        k(   23) = (   0.1102219   0.2545780   0.0000000), wk =   0.0246914
        k(   24) = (   0.1102219   0.3182225   0.0000000), wk =   0.0246914
        k(   25) = (   0.1102219   0.3818669   0.0000000), wk =   0.0246914
        k(   26) = (   0.1102219   0.4455114   0.0000000), wk =   0.0246914
        k(   27) = (   0.1102219   0.5091559   0.0000000), wk =   0.0246914
        k(   28) = (   0.1102219   0.5728004   0.0000000), wk =   0.0123457
        k(   29) = (   0.1102219   0.0000000   0.0000000), wk =   0.0123457
        k(   30) = (   0.1653328   0.0954667   0.0000000), wk =   0.0246914
        k(   31) = (   0.1653328   0.1591112   0.0000000), wk =   0.0246914
        k(   32) = (   0.1653328   0.2227557   0.0000000), wk =   0.0246914
        k(   33) = (   0.1653328   0.2864002   0.0000000), wk =   0.0246914
        k(   34) = (   0.1653328   0.3500447   0.0000000), wk =   0.0246914
        k(   35) = (   0.1653328   0.4136892   0.0000000), wk =   0.0246914
        k(   36) = (   0.1653328   0.4773337   0.0000000), wk =   0.0246914
        k(   37) = (   0.1653328   0.5409782   0.0000000), wk =   0.0246914
        k(   38) = (   0.1653328  -0.0318222   0.0000000), wk =   0.0246914
        k(   39) = (   0.2204437   0.1272890   0.0000000), wk =   0.0246914
        k(   40) = (   0.2204437   0.1909335   0.0000000), wk =   0.0246914
        k(   41) = (   0.2204437   0.2545780   0.0000000), wk =   0.0246914
        k(   42) = (   0.2204437   0.3182225   0.0000000), wk =   0.0246914
        k(   43) = (   0.2204437   0.3818669   0.0000000), wk =   0.0246914
        k(   44) = (   0.2204437   0.4455114   0.0000000), wk =   0.0246914
        k(   45) = (   0.2204437   0.5091559   0.0000000), wk =   0.0246914
        k(   46) = (   0.2204437   0.5728004   0.0000000), wk =   0.0123457
        k(   47) = (   0.2204437  -0.0636445   0.0000000), wk =   0.0246914
        k(   48) = (   0.2204437   0.0000000   0.0000000), wk =   0.0123457
        k(   49) = (   0.2755547   0.1591112   0.0000000), wk =   0.0246914
        k(   50) = (   0.2755547   0.2227557   0.0000000), wk =   0.0246914
        k(   51) = (   0.2755547   0.2864002   0.0000000), wk =   0.0246914
        k(   52) = (   0.2755547   0.3500447   0.0000000), wk =   0.0246914
        k(   53) = (   0.2755547   0.4136892   0.0000000), wk =   0.0246914
        k(   54) = (   0.2755547   0.4773337   0.0000000), wk =   0.0246914
        k(   55) = (   0.2755547   0.5409782   0.0000000), wk =   0.0246914
        k(   56) = (   0.2755547  -0.0954667   0.0000000), wk =   0.0246914
        k(   57) = (   0.2755547  -0.0318222   0.0000000), wk =   0.0246914
        k(   58) = (   0.3306656   0.1909335   0.0000000), wk =   0.0246914
        k(   59) = (   0.3306656   0.2545780   0.0000000), wk =   0.0246914
        k(   60) = (   0.3306656   0.3182225   0.0000000), wk =   0.0246914
[...]
        k(   77) = (   0.4408875   0.2545780   0.0000000), wk =   0.0246914
        k(   78) = (   0.4408875   0.3182225   0.0000000), wk =   0.0246914
        k(   79) = (   0.4408875   0.3818669   0.0000000), wk =   0.0246914
        k(   80) = (   0.4408875   0.4455114   0.0000000), wk =   0.0246914
        k(   81) = (   0.4408875   0.5091559   0.0000000), wk =   0.0246914
        k(   82) = (   0.4408875   0.5728004   0.0000000), wk =   0.0123457
        k(   83) = (   0.4408875  -0.1909335   0.0000000), wk =   0.0246914
        k(   84) = (   0.4408875  -0.1272890   0.0000000), wk =   0.0246914
        k(   85) = (   0.4408875  -0.0636445   0.0000000), wk =   0.0246914
        k(   86) = (   0.4408875   0.0000000   0.0000000), wk =   0.0123457
        k(   87) = (  -0.4959984  -0.2864002   0.0000000), wk =   0.0123457
        k(   88) = (  -0.4959984  -0.2227557   0.0000000), wk =   0.0246914
        k(   89) = (  -0.4959984  -0.1591112   0.0000000), wk =   0.0246914
        k(   90) = (  -0.4959984  -0.0954667   0.0000000), wk =   0.0246914
        k(   91) = (  -0.4959984  -0.0318222   0.0000000), wk =   0.0246914

     Check: negative core charge=   -0.000001

     Initial potential from superposition of free atoms

     starting charge   25.99864, renormalised to   26.00000
     Starting wfcs are   21 randomized atomic wfcs
     Checking if some PAW data can be deallocated...

     Self-consistent Calculation

     iteration #  1     ecut=    50.00 Ry     beta= 0.50
     Davidson diagonalization with overlap
     ethr =  1.00E-02,  avg # of iterations =  2.0

     total energy              =    -496.64638686 Ry
     estimated scf accuracy    <       0.51215276 Ry

[...]

     negative rho (up, down):  1.987E-07 0.000E+00

[...]

     total energy              =    -496.69024482 Ry
     estimated scf accuracy    <       0.00000001 Ry

     iteration # 24     ecut=    50.00 Ry     beta= 0.50
     Davidson diagonalization with overlap
     ethr =  4.95E-11,  avg # of iterations =  3.4

[...]

     End of self-consistent calculation

          k = 0.0000 0.0000 0.0000 (  4009 PWs)   bands (ev):

   -58.0965 -32.2192 -32.0215 -32.0213 -11.2324  -9.9529  -2.7654   0.2278
     0.2290   1.0634   1.3321   1.3336   2.8017

[...]

          k = 0.4409 0.0000 0.0000 (  4007 PWs)   bands (ev):

[...]

          k =-0.4960-0.2864 0.0000 (  4034 PWs)   bands (ev):

[...]

          k =-0.4960-0.0318 0.0000 (  3997 PWs)   bands (ev):

   -58.0604 -32.3175 -32.1700 -32.1464  -9.4187  -9.1817  -2.2788  -2.0497
    -0.8330  -0.3916   0.0105   1.1601   2.3154

     highest occupied level (ev):     2.8090

!    total energy              =    -496.69024481 Ry

     total all-electron energy =     -9695.021631 Ry
     estimated scf accuracy    <          5.9E-09 Ry

     The total energy is the sum of the following terms:
     one-electron contribution =    -417.87441768 Ry
     hartree contribution      =     215.23370325 Ry
     xc contribution           =     -42.55233366 Ry
     ewald contribution        =      55.45275976 Ry
     one-center paw contrib.   =    -306.94995648 Ry

     convergence has been achieved in  24 iterations

     negative rho (up, down):  7.751E-08 0.000E+00

     Forces acting on atoms (cartesian axes, Ry/au):

     atom    1 type  1   force =     0.00000000    0.00005792    0.00000000
     atom    2 type  2   force =     0.00000000   -0.00002896   -0.00010489
     atom    3 type  2   force =     0.00000000   -0.00002896    0.00010489

     Total force =     0.000164     Total SCF correction =     0.000170
     SCF correction compared to forces is large: reduce conv_thr to get better values

     Computing stress (Cartesian axis) and pressure

     negative rho (up, down):  7.751E-08 0.000E+00
          total   stress  (Ry/bohr**3)                   (kbar)     P=       -0.48
  -0.00000233   0.00000000   0.00000000           -0.34        0.00        0.00
   0.00000000  -0.00000169   0.00000000            0.00       -0.25        0.00
   0.00000000   0.00000000  -0.00000574            0.00        0.00       -0.84

     Writing output data file ./MoS2.save/

     General routines

     Parallel routines

   This run was terminated on:  11:48:13  23Feb2022

   JOB DONE.