     Program PHONON v.6.7MaX starts on 23Feb2022 at 10:29:55

     R & G space division:  proc/nbgrp/npool/nimage =      20
     Waiting for input...
     Reading input from standard input

     Reading xml data from directory:

     ./2Dgraphene.save/
     Message from routine qexsd_readschema :
     input info not found or not readable in xml file
     file C.pbe-rrkjus.UPF: wavefunction(s)  2S 2P renormalized

     IMPORTANT: XC functional enforced from input :
     Exchange-correlation= PBE
                           (   1   4   3   4   0   0   0)
     Any further DFT definition will be discarded
     Please, verify this is what you really want

     negative rho (up, down):  6.981E-05 0.000E+00
     Reading collected, re-writing distributed wavefunctions

     Dynamical matrices for ( 7, 7, 1)  uniform grid of q-points
     (   8 q-points):
       N         xq(1)         xq(2)         xq(3)
       1   0.000000000   0.000000000   0.000000000
       2   0.000000000   0.164957220   0.000000000
       3   0.000000000   0.329914440   0.000000000
       4   0.000000000   0.494871659   0.000000000
       5   0.142857143   0.247435830   0.000000000
       6   0.142857143   0.412393049   0.000000000
       7   0.142857143   0.577350269   0.000000000
       8   0.285714286   0.494871659   0.000000000

     Calculation of q =    0.0000000   0.0000000   0.0000000

     bravais-lattice index     =            4
     lattice parameter (alat)  =       4.6531  a.u.
     unit-cell volume          =     708.6620 (a.u.)^3
     number of atoms/cell      =            2
     number of atomic types    =            1
     kinetic-energy cut-off    =      90.0000  Ry
     charge density cut-off    =     270.0000  Ry
     convergence threshold     =      1.0E-20
     beta                      =       0.7000
     number of iterations used =            4
     Exchange-correlation= PBE
                           (   1   4   3   4   0   0   0)

     celldm(1)=    4.65307  celldm(2)=    0.00000  celldm(3)=    8.12249
     celldm(4)=    0.00000  celldm(5)=    0.00000  celldm(6)=    0.00000

     crystal axes: (cart. coord. in units of alat)
               a(1) = (  1.0000  0.0000  0.0000 )
               a(2) = ( -0.5000  0.8660  0.0000 )
               a(3) = (  0.0000  0.0000  8.1225 )

     reciprocal axes: (cart. coord. in units 2 pi/alat)
               b(1) = (  1.0000  0.5774  0.0000 )
               b(2) = (  0.0000  1.1547  0.0000 )
               b(3) = (  0.0000  0.0000  0.1231 )

     Atoms inside the unit cell:

     Cartesian axes

     site n.  atom      mass           positions (alat units)
        1     C   12.0107   tau(    1) = (    0.00000    0.57735    4.06124  )
        2     C   12.0107   tau(    2) = (    0.50000    0.28868    4.06124  )

     Computing dynamical matrix for
                    q = (   0.0000000   0.0000000   0.0000000 )

     25 Sym.Ops. (with q -> -q+G )

     G cutoff =  148.0757  (   2654 G-vectors)     FFT grid: ( 25, 25,200)

     number of k points=    19  Methfessel-Paxton smearing, width (Ry)=  0.0200

     PseudoPot. # 1 for C  read from file:
     ../Pseudo/C.pbe-rrkjus.UPF
     MD5 check sum: 00fb224312de0c5b6853bd333518df6f
     Pseudo is Ultrasoft, Zval =  4.0
     Generated by new atomic code, or converted to UPF format
     Using radial grid of  627 points,  4 beta functions with:
                l(1) =   0
                l(2) =   0
                l(3) =   1
                l(4) =   1
     Q(r) pseudized with 0 coefficients

     Mode symmetry, D_6h(6/mmm) point group:

     Atomic displacements:
     There are    4 irreducible representations

     Representation     1      1 modes -  To be done

[...]

     Alpha used in Ewald sum =   2.8000

     Representation #   1 mode #   1

     Self-consistent Calculation

     Pert. #  1: Fermi energy shift (Ry) =    -4.3082E-27     0.0000E+00

      thresh= 1.000E-02 alpha_mix =  0.700 |ddv_scf|^2 =  1.090E-07

[...]

     End of self-consistent calculation

     Convergence has been achieved

     Representation #   2 modes #   2   3

[...]

     Representation #   4 modes #   5   6

[...]

     Pert. #  1: Fermi energy shift (Ry) =    -2.5849E-26    -9.1835E-41
     Pert. #  2: Fermi energy shift (Ry) =    -4.3082E-26     6.1224E-41

[...]

     Number of q in the star =    1
     List of q in the star:
          1   0.000000000   0.000000000   0.000000000

     Diagonalizing the dynamical matrix

     q = (    0.000000000   0.000000000   0.000000000 )

     freq (    1) =      -1.045236 [THz] =     -34.865311 [cm-1]
     freq (    2) =      -1.045236 [THz] =     -34.865311 [cm-1]
     freq (    3) =       2.453706 [THz] =      81.846826 [cm-1]
     freq (    4) =      26.498113 [THz] =     883.881914 [cm-1]
     freq (    5) =      44.059978 [THz] =    1469.682657 [cm-1]
     freq (    6) =      44.059978 [THz] =    1469.682657 [cm-1]

     Mode symmetry, D_6h(6/mmm) point group:

     freq (   1-   2) =        -34.9  [cm-1]   --> E_1u            I
     freq (   3-   3) =         81.8  [cm-1]   --> A_2u            I
     freq (   4-   4) =        883.9  [cm-1]   --> B_1g
     freq (   5-   6) =       1469.7  [cm-1]   --> E_2g            R

[...]

     bravais-lattice index     =            4
     lattice parameter (alat)  =       4.6531  a.u.
     unit-cell volume          =     708.6620 (a.u.)^3
     number of atoms/cell      =            2
     number of atomic types    =            1
     number of electrons       =         8.00
     number of Kohn-Sham states=            8
     kinetic-energy cutoff     =      90.0000  Ry
     charge density cutoff     =     270.0000  Ry
     Exchange-correlation= PBE
                           (   1   4   3   4   0   0   0)

[...]

     atomic species   valence    mass     pseudopotential
        C              4.00    12.01070     C ( 1.00)

     24 Sym. Ops., with inversion, found

[...]

     site n.     atom                  positions (alat units)
         1           C   tau(   1) = (   0.0000000   0.5773503   4.0612436  )
         2           C   tau(   2) = (   0.5000000   0.2886751   4.0612436  )

[...]

     Number of k-points >= 100: set verbosity='high' to print them.

     The potential is recalculated from file :
     ./_ph0/2Dgraphene.save/charge-density

     negative rho (up, down):  6.981E-05 0.000E+00
     Starting wfcs are    8 atomic wfcs

     Band Structure Calculation
     Davidson diagonalization with overlap

     ethr =  1.25E-10,  avg # of iterations = 25.6

     End of band structure calculation

     Number of k-points >= 100: set verbosity='high' to print the bands.

     the Fermi energy is    -2.3445 ev

     Writing output data file ./_ph0/2Dgraphene.save/

[...]

      4 Sym.Ops. (no q -> -q+G )

[...]

     Mode symmetry, C_2v (mm2)  point group:

[...]

     freq (   1-   1) =         92.6  [cm-1]   --> B_2  D_4  S_4
     freq (   2-   2) =        291.2  [cm-1]   --> B_1  D_3  S_3
     freq (   3-   3) =        470.0  [cm-1]   --> A_1  D_1  S_1
     freq (   4-   4) =        867.8  [cm-1]   --> B_2  D_4  S_4
     freq (   5-   5) =       1521.5  [cm-1]   --> B_1  D_3  S_3
     freq (   6-   6) =       1596.6  [cm-1]   --> A_1  D_1  S_1

[...]

     Mode symmetry, C_s (m)     point group:

[...]

     Mode symmetry, C_s (m)     point group:

     freq (   1-   1) =        331.2  [cm-1]   --> A''
     freq (   2-   2) =        700.5  [cm-1]   --> A'
     freq (   3-   3) =        737.2  [cm-1]   --> A''
     freq (   4-   4) =       1041.1  [cm-1]   --> A'
     freq (   5-   5) =       1396.1  [cm-1]   --> A'
     freq (   6-   6) =       1482.1  [cm-1]   --> A'

[...]

     Calculation of q =    0.2857143   0.4948717   0.0000000

     bravais-lattice index     =            4
     lattice parameter (alat)  =       4.6531  a.u.
     unit-cell volume          =     708.6620 (a.u.)^3
     number of atoms/cell      =            2
     number of atomic types    =            1
     number of electrons       =         8.00
     number of Kohn-Sham states=            8
     kinetic-energy cutoff     =      90.0000  Ry
     charge density cutoff     =     270.0000  Ry
     Exchange-correlation= PBE
                           (   1   4   3   4   0   0   0)

[...]

     atomic species   valence    mass     pseudopotential
        C              4.00    12.01070     C ( 1.00)

     24 Sym. Ops., with inversion, found

[...]

     site n.     atom                  positions (alat units)
         1           C   tau(   1) = (   0.0000000   0.5773503   4.0612436  )
         2           C   tau(   2) = (   0.5000000   0.2886751   4.0612436  )

[...]

     Number of k-points >= 100: set verbosity='high' to print them.

     The potential is recalculated from file :
     ./_ph0/2Dgraphene.save/charge-density

     negative rho (up, down):  6.981E-05 0.000E+00
     Starting wfcs are    8 atomic wfcs

     Band Structure Calculation
     Davidson diagonalization with overlap

     ethr =  1.25E-10,  avg # of iterations = 25.2

     End of band structure calculation

     Number of k-points >= 100: set verbosity='high' to print the bands.

     the Fermi energy is    -2.3445 ev

     Writing output data file ./_ph0/2Dgraphene.save/

     bravais-lattice index     =            4
     lattice parameter (alat)  =       4.6531  a.u.
     unit-cell volume          =     708.6620 (a.u.)^3
     number of atoms/cell      =            2
     number of atomic types    =            1
     kinetic-energy cut-off    =      90.0000  Ry
     charge density cut-off    =     270.0000  Ry
     convergence threshold     =      1.0E-20
     beta                      =       0.7000
     number of iterations used =            4
     Exchange-correlation= PBE
                           (   1   4   3   4   0   0   0)

     celldm(1)=    4.65307  celldm(2)=    0.00000  celldm(3)=    8.12249
     celldm(4)=    0.00000  celldm(5)=    0.00000  celldm(6)=    0.00000

     crystal axes: (cart. coord. in units of alat)
               a(1) = (  1.0000  0.0000  0.0000 )
               a(2) = ( -0.5000  0.8660  0.0000 )
               a(3) = (  0.0000  0.0000  8.1225 )

     reciprocal axes: (cart. coord. in units 2 pi/alat)
               b(1) = (  1.0000  0.5774  0.0000 )
               b(2) = (  0.0000  1.1547  0.0000 )
               b(3) = (  0.0000  0.0000  0.1231 )

     Atoms inside the unit cell:

     Cartesian axes

     site n.  atom      mass           positions (alat units)
        1     C   12.0107   tau(    1) = (    0.00000    0.57735    4.06124  )
        2     C   12.0107   tau(    2) = (    0.50000    0.28868    4.06124  )

     Computing dynamical matrix for
                    q = (   0.2857143   0.4948717   0.0000000 )

      4 Sym.Ops. (no q -> -q+G )

     G cutoff =  148.0757  (   2654 G-vectors)     FFT grid: ( 25, 25,200)

     number of k points=   156  Methfessel-Paxton smearing, width (Ry)=  0.0200

     PseudoPot. # 1 for C  read from file:
     ../Pseudo/C.pbe-rrkjus.UPF
     MD5 check sum: 00fb224312de0c5b6853bd333518df6f
     Pseudo is Ultrasoft, Zval =  4.0
     Generated by new atomic code, or converted to UPF format
     Using radial grid of  627 points,  4 beta functions with:
                l(1) =   0
                l(2) =   0
                l(3) =   1
                l(4) =   1
     Q(r) pseudized with 0 coefficients

[...]

     Atomic displacements:
     There are    6 irreducible representations

[...]

     Representation     6      1 modes -  To be done

     Alpha used in Ewald sum =   2.8000

[...]

     Representation #   6 mode #   6

     Self-consistent Calculation

[...]

      thresh= 3.460E-11 alpha_mix =  0.700 |ddv_scf|^2 =  6.045E-21

     End of self-consistent calculation

     Convergence has been achieved

     Number of q in the star =    6
     List of q in the star:
          1   0.285714286   0.494871659   0.000000000
          2  -0.285714286   0.494871659   0.000000000
          3   0.571428571   0.000000000   0.000000000
          4  -0.571428571   0.000000000   0.000000000
          5   0.285714286  -0.494871659   0.000000000
          6  -0.285714286  -0.494871659   0.000000000

     Diagonalizing the dynamical matrix

     q = (    0.285714286   0.494871659   0.000000000 )

     freq (    1) =      13.852086 [THz] =     462.055852 [cm-1]
     freq (    2) =      18.553042 [THz] =     618.862880 [cm-1]
     freq (    3) =      27.953686 [THz] =     932.434608 [cm-1]
     freq (    4) =      34.388368 [THz] =    1147.072491 [cm-1]
     freq (    5) =      39.569093 [THz] =    1319.882883 [cm-1]
     freq (    6) =      39.823065 [THz] =    1328.354459 [cm-1]

     Mode symmetry, C_2v (mm2)  point group:

     freq (   1-   1) =        462.1  [cm-1]   --> B_2  D_4  S_4
     freq (   2-   2) =        618.9  [cm-1]   --> A_2  D_2  S_2
     freq (   3-   3) =        932.4  [cm-1]   --> B_1  D_3  S_3
     freq (   4-   4) =       1147.1  [cm-1]   --> A_1  D_1  S_1
     freq (   5-   5) =       1319.9  [cm-1]   --> B_1  D_3  S_3
     freq (   6-   6) =       1328.4  [cm-1]   --> A_1  D_1  S_1

     General routines

     Parallel routines

     INITIALIZATION:

     DYNAMICAL MATRIX:

      General routines

   This run was terminated on:  10:47: 7  23Feb2022

   JOB DONE.