     Program PHONON v.6.7MaX starts on 18Feb2022 at 12:20:24

     R & G space division:  proc/nbgrp/npool/nimage =      20
     Waiting for input...
     Reading input from standard input

     Reading xml data from directory:

     ./2Dgraphene.save/
     Message from routine qexsd_readschema :
     input info not found or not readable in xml file
     file C.pbe-rrkjus.UPF: wavefunction(s)  2S 2P renormalized

     IMPORTANT: XC functional enforced from input :
     Exchange-correlation= PBE
                           (   1   4   3   4   0   0   0)
     Any further DFT definition will be discarded
     Please, verify this is what you really want

     negative rho (up, down):  6.981E-05 0.000E+00
     Reading collected, re-writing distributed wavefunctions

     Dynamical matrices for ( 6, 6, 1)  uniform grid of q-points
     (   7 q-points):
       N         xq(1)         xq(2)         xq(3)
       1   0.000000000   0.000000000   0.000000000
       2   0.000000000   0.192450090   0.000000000
       3   0.000000000   0.384900179   0.000000000
       4   0.000000000  -0.577350269   0.000000000
       5   0.166666667   0.288675135   0.000000000
       6   0.166666667   0.481125224   0.000000000
       7   0.333333333   0.577350269   0.000000000

     Calculation of q =    0.0000000   0.0000000   0.0000000

     bravais-lattice index     =            4
     lattice parameter (alat)  =       4.6531  a.u.
     unit-cell volume          =     708.6620 (a.u.)^3
     number of atoms/cell      =            2
     number of atomic types    =            1
     kinetic-energy cut-off    =      90.0000  Ry
     charge density cut-off    =     270.0000  Ry
     convergence threshold     =      1.0E-20
     beta                      =       0.7000
     number of iterations used =            4
     Exchange-correlation= PBE
                           (   1   4   3   4   0   0   0)

     celldm(1)=    4.65307  celldm(2)=    0.00000  celldm(3)=    8.12249
     celldm(4)=    0.00000  celldm(5)=    0.00000  celldm(6)=    0.00000

     crystal axes: (cart. coord. in units of alat)
               a(1) = (  1.0000  0.0000  0.0000 )
               a(2) = ( -0.5000  0.8660  0.0000 )
               a(3) = (  0.0000  0.0000  8.1225 )

     reciprocal axes: (cart. coord. in units 2 pi/alat)
               b(1) = (  1.0000  0.5774  0.0000 )
               b(2) = (  0.0000  1.1547  0.0000 )
               b(3) = (  0.0000  0.0000  0.1231 )

     Atoms inside the unit cell:

     Cartesian axes

     site n.  atom      mass           positions (alat units)
        1     C   12.0107   tau(    1) = (    0.00000    0.57735    4.06124  )
        2     C   12.0107   tau(    2) = (    0.50000    0.28868    4.06124  )

     Computing dynamical matrix for
                    q = (   0.0000000   0.0000000   0.0000000 )

     25 Sym.Ops. (with q -> -q+G )

     G cutoff =  148.0757  (   2654 G-vectors)     FFT grid: ( 25, 25,200)

     number of k points=    19  Methfessel-Paxton smearing, width (Ry)=  0.0200

     PseudoPot. # 1 for C  read from file:
     ../Pseudo/C.pbe-rrkjus.UPF
     MD5 check sum: 00fb224312de0c5b6853bd333518df6f
     Pseudo is Ultrasoft, Zval =  4.0
     Generated by new atomic code, or converted to UPF format
     Using radial grid of  627 points,  4 beta functions with:
                l(1) =   0
                l(2) =   0
                l(3) =   1
                l(4) =   1
     Q(r) pseudized with 0 coefficients

     Mode symmetry, D_6h(6/mmm) point group:

     Atomic displacements:
     There are    4 irreducible representations

     Representation     1      1 modes -  To be done

[...]

     Alpha used in Ewald sum =   2.8000

     Representation #   1 mode #   1

     Self-consistent Calculation

     Pert. #  1: Fermi energy shift (Ry) =     4.3082E-27     0.0000E+00

      thresh= 1.000E-02 alpha_mix =  0.700 |ddv_scf|^2 =  1.090E-07

[...]

     End of self-consistent calculation

     Convergence has been achieved

     Representation #   2 modes #   2   3

[...]

     Pert. #  1: Fermi energy shift (Ry) =    -2.1541E-26    -3.0612E-41
     Pert. #  2: Fermi energy shift (Ry) =    -2.1541E-26     6.1224E-41

[...]

     Number of q in the star =    1
     List of q in the star:
          1   0.000000000   0.000000000   0.000000000

     Diagonalizing the dynamical matrix

     q = (    0.000000000   0.000000000   0.000000000 )

     freq (    1) =      -1.045236 [THz] =     -34.865311 [cm-1]
     freq (    2) =      -1.045236 [THz] =     -34.865311 [cm-1]
     freq (    3) =       2.453706 [THz] =      81.846826 [cm-1]
     freq (    4) =      26.498113 [THz] =     883.881914 [cm-1]
     freq (    5) =      44.059978 [THz] =    1469.682657 [cm-1]
     freq (    6) =      44.059978 [THz] =    1469.682657 [cm-1]

     Mode symmetry, D_6h(6/mmm) point group:

     freq (   1-   2) =        -34.9  [cm-1]   --> E_1u            I
     freq (   3-   3) =         81.8  [cm-1]   --> A_2u            I
     freq (   4-   4) =        883.9  [cm-1]   --> B_1g
     freq (   5-   6) =       1469.7  [cm-1]   --> E_2g            R

[...]

     bravais-lattice index     =            4
     lattice parameter (alat)  =       4.6531  a.u.
     unit-cell volume          =     708.6620 (a.u.)^3
     number of atoms/cell      =            2
     number of atomic types    =            1
     number of electrons       =         8.00
     number of Kohn-Sham states=            8
     kinetic-energy cutoff     =      90.0000  Ry
     charge density cutoff     =     270.0000  Ry
     Exchange-correlation= PBE
                           (   1   4   3   4   0   0   0)

[...]

     atomic species   valence    mass     pseudopotential
        C              4.00    12.01070     C ( 1.00)

     24 Sym. Ops., with inversion, found

[...]

     site n.     atom                  positions (alat units)
         1           C   tau(   1) = (   0.0000000   0.5773503   4.0612436  )
         2           C   tau(   2) = (   0.5000000   0.2886751   4.0612436  )

[...]

     Number of k-points >= 100: set verbosity='high' to print them.

     The potential is recalculated from file :
     ./_ph0/2Dgraphene.save/charge-density

     negative rho (up, down):  6.981E-05 0.000E+00
     Starting wfcs are    8 atomic wfcs

     Band Structure Calculation
     Davidson diagonalization with overlap

     ethr =  1.25E-10,  avg # of iterations = 25.0

     End of band structure calculation

     Number of k-points >= 100: set verbosity='high' to print the bands.

     the Fermi energy is    -2.3445 ev

     Writing output data file ./_ph0/2Dgraphene.save/

[...]

      4 Sym.Ops. (no q -> -q+G )

[...]

     Mode symmetry, C_2v (mm2)  point group:

[...]

     freq (   1-   1) =        108.1  [cm-1]   --> B_2  D_4  S_4
     freq (   2-   2) =        334.3  [cm-1]   --> B_1  D_3  S_3
     freq (   3-   3) =        543.8  [cm-1]   --> A_1  D_1  S_1
     freq (   4-   4) =        861.1  [cm-1]   --> B_2  D_4  S_4
     freq (   5-   5) =       1508.7  [cm-1]   --> B_1  D_3  S_3
     freq (   6-   6) =       1599.3  [cm-1]   --> A_1  D_1  S_1

[...]

     number of k points=    86  Methfessel-Paxton smearing, width (Ry)=  0.0200
                       cart. coord. in units 2pi/alat
        k(    1) = (   0.0000000   0.0000000   0.0000000), wk =   0.0138889
        k(    2) = (   0.0000000  -0.5773503   0.0000000), wk =   0.0000000
        k(    3) = (   0.0000000   0.0962250   0.0000000), wk =   0.0277778
        k(    4) = (   0.0000000  -0.4811252   0.0000000), wk =   0.0000000
        k(    5) = (   0.0000000   0.1924501   0.0000000), wk =   0.0277778
        k(    6) = (   0.0000000  -0.3849002   0.0000000), wk =   0.0000000
        k(    7) = (   0.0000000   0.2886751   0.0000000), wk =   0.0277778
        k(    8) = (   0.0000000  -0.2886751   0.0000000), wk =   0.0000000
        k(    9) = (   0.0000000   0.3849002   0.0000000), wk =   0.0277778
        k(   10) = (   0.0000000  -0.1924501   0.0000000), wk =   0.0000000
        k(   11) = (   0.0000000   0.4811252   0.0000000), wk =   0.0277778
        k(   12) = (   0.0000000  -0.0962250   0.0000000), wk =   0.0000000
        k(   13) = (   0.0000000  -0.5773503   0.0000000), wk =   0.0138889
        k(   14) = (   0.0000000  -1.1547005   0.0000000), wk =   0.0000000
        k(   15) = (   0.0833333   0.1443376   0.0000000), wk =   0.0555556
        k(   16) = (   0.0833333  -0.4330127   0.0000000), wk =   0.0000000
        k(   17) = (   0.0833333   0.2405626   0.0000000), wk =   0.0555556
        k(   18) = (   0.0833333  -0.3367877   0.0000000), wk =   0.0000000
        k(   19) = (   0.0833333   0.3367877   0.0000000), wk =   0.0555556
        k(   20) = (   0.0833333  -0.2405626   0.0000000), wk =   0.0000000
        k(   21) = (   0.0833333   0.4330127   0.0000000), wk =   0.0555556
        k(   22) = (   0.0833333  -0.1443376   0.0000000), wk =   0.0000000
        k(   23) = (   0.0833333   0.5292377   0.0000000), wk =   0.0555556
        k(   24) = (   0.0833333  -0.0481125   0.0000000), wk =   0.0000000
        k(   25) = (   0.1666667   0.2886751   0.0000000), wk =   0.0555556
        k(   26) = (   0.1666667  -0.2886751   0.0000000), wk =   0.0000000
        k(   27) = (   0.1666667   0.3849002   0.0000000), wk =   0.0555556
        k(   28) = (   0.1666667  -0.1924501   0.0000000), wk =   0.0000000
        k(   29) = (   0.1666667   0.4811252   0.0000000), wk =   0.0555556
        k(   30) = (   0.1666667  -0.0962250   0.0000000), wk =   0.0000000
        k(   31) = (   0.1666667   0.5773503   0.0000000), wk =   0.0277778
        k(   32) = (   0.1666667   0.0000000   0.0000000), wk =   0.0000000
        k(   33) = (   0.2500000   0.4330127   0.0000000), wk =   0.0555556
        k(   34) = (   0.2500000  -0.1443376   0.0000000), wk =   0.0000000
        k(   35) = (   0.2500000   0.5292377   0.0000000), wk =   0.0555556
        k(   36) = (   0.2500000  -0.0481125   0.0000000), wk =   0.0000000
        k(   37) = (   0.3333333   0.5773503   0.0000000), wk =   0.0277778
        k(   38) = (   0.3333333   0.0000000   0.0000000), wk =   0.0000000
        k(   39) = (   0.0833333  -0.0481125   0.0000000), wk =   0.0555556
        k(   40) = (   0.0833333  -0.6254628   0.0000000), wk =   0.0000000
        k(   41) = (   0.1666667  -0.0962250   0.0000000), wk =   0.0555556
        k(   42) = (   0.1666667  -0.6735753   0.0000000), wk =   0.0000000
        k(   43) = (   0.2500000  -0.1443376   0.0000000), wk =   0.0555556
        k(   44) = (   0.2500000  -0.7216878   0.0000000), wk =   0.0000000
        k(   45) = (   0.3333333  -0.1924501   0.0000000), wk =   0.0555556
        k(   46) = (   0.3333333  -0.7698004   0.0000000), wk =   0.0000000
        k(   47) = (   0.4166667  -0.2405626   0.0000000), wk =   0.0555556
        k(   48) = (   0.4166667  -0.8179129   0.0000000), wk =   0.0000000
        k(   49) = (  -0.5000000   0.2886751   0.0000000), wk =   0.0277778
        k(   50) = (  -0.5000000  -0.2886751   0.0000000), wk =   0.0000000
        k(   51) = (  -0.1666667   0.0000000   0.0000000), wk =   0.0277778
        k(   52) = (  -0.1666667  -0.5773503   0.0000000), wk =   0.0000000
        k(   53) = (   0.1666667  -0.1924501   0.0000000), wk =   0.0555556
        k(   54) = (   0.1666667  -0.7698004   0.0000000), wk =   0.0000000
        k(   55) = (  -0.2500000  -0.0481125   0.0000000), wk =   0.0555556
        k(   56) = (  -0.2500000  -0.6254628   0.0000000), wk =   0.0000000
        k(   57) = (   0.2500000  -0.2405626   0.0000000), wk =   0.0555556
        k(   58) = (   0.2500000  -0.8179129   0.0000000), wk =   0.0000000
        k(   59) = (  -0.3333333  -0.0962250   0.0000000), wk =   0.0555556
        k(   60) = (  -0.3333333  -0.6735753   0.0000000), wk =   0.0000000
[...]
        k(   72) = (   0.2500000  -0.9141379   0.0000000), wk =   0.0000000
        k(   73) = (  -0.4166667  -0.0481125   0.0000000), wk =   0.0555556
        k(   74) = (  -0.4166667  -0.6254628   0.0000000), wk =   0.0000000
        k(   75) = (   0.3333333  -0.3849002   0.0000000), wk =   0.0555556
        k(   76) = (   0.3333333  -0.9622504   0.0000000), wk =   0.0000000
        k(   77) = (  -0.5000000  -0.0962250   0.0000000), wk =   0.0555556
        k(   78) = (  -0.5000000  -0.6735753   0.0000000), wk =   0.0000000
        k(   79) = (   0.4166667  -0.4330127   0.0000000), wk =   0.0555556
        k(   80) = (   0.4166667  -1.0103630   0.0000000), wk =   0.0000000
        k(   81) = (  -0.5000000   0.0000000   0.0000000), wk =   0.0277778
        k(   82) = (  -0.5000000  -0.5773503   0.0000000), wk =   0.0000000
        k(   83) = (   0.3333333  -0.4811252   0.0000000), wk =   0.0555556
        k(   84) = (   0.3333333  -1.0584755   0.0000000), wk =   0.0000000
        k(   85) = (  -0.5833333  -0.0481125   0.0000000), wk =   0.0555556
        k(   86) = (  -0.5833333  -0.6254628   0.0000000), wk =   0.0000000

[...]

          k = 0.0000 0.0000 0.0000 ( 10069 PWs)   bands (ev):

   -21.8707  -9.9838  -5.4204  -5.4204   0.8987   1.6461   1.8496   2.8099

[...]

          k =-0.5000 0.2887 0.0000 ( 10232 PWs)   bands (ev):

[...]

      9 Sym.Ops. (with q -> -q+G )

[...]

     Mode symmetry, D_2h (mmm)  point group:

[...]

     Mode symmetry, D_2h (mmm)  point group:

     freq (   1-   1) =        477.3  [cm-1]   --> B_2g
     freq (   2-   2) =        625.2  [cm-1]   --> B_1g
     freq (   3-   3) =        639.5  [cm-1]   --> B_1u
     freq (   4-   4) =       1328.9  [cm-1]   --> B_3u
     freq (   5-   5) =       1341.7  [cm-1]   --> A_g
     freq (   6-   6) =       1391.5  [cm-1]   --> B_2u

[...]

     Mode symmetry, C_2v (mm2)  point group:

     freq (   1-   1) =        215.1  [cm-1]   --> B_2  D_4  S_4
     freq (   2-   2) =        598.2  [cm-1]   --> B_1  D_3  S_3
     freq (   3-   3) =        806.6  [cm-1]   --> A_2  D_2  S_2
     freq (   4-   4) =        837.5  [cm-1]   --> A_1  D_1  S_1
     freq (   5-   5) =       1431.7  [cm-1]   --> A_1  D_1  S_1
     freq (   6-   6) =       1556.0  [cm-1]   --> B_1  D_3  S_3

[...]

     Number of k-points >= 100: set verbosity='high' to print them.

[...]

     Number of k-points >= 100: set verbosity='high' to print the bands.

[...]

     Mode symmetry, C_s (m)     point group:

[...]

     Mode symmetry, C_s (m)     point group:

     freq (   1-   1) =        411.0  [cm-1]   --> A''
     freq (   2-   2) =        675.2  [cm-1]   --> A''
     freq (   3-   3) =        774.3  [cm-1]   --> A'
     freq (   4-   4) =       1146.7  [cm-1]   --> A'
     freq (   5-   5) =       1375.4  [cm-1]   --> A'
     freq (   6-   6) =       1404.9  [cm-1]   --> A'

     Calculation of q =    0.3333333   0.5773503   0.0000000

     bravais-lattice index     =            4
     lattice parameter (alat)  =       4.6531  a.u.
     unit-cell volume          =     708.6620 (a.u.)^3
     number of atoms/cell      =            2
     number of atomic types    =            1
     number of electrons       =         8.00
     number of Kohn-Sham states=            8
     kinetic-energy cutoff     =      90.0000  Ry
     charge density cutoff     =     270.0000  Ry
     Exchange-correlation= PBE
                           (   1   4   3   4   0   0   0)

[...]

     atomic species   valence    mass     pseudopotential
        C              4.00    12.01070     C ( 1.00)

     24 Sym. Ops., with inversion, found

[...]

     site n.     atom                  positions (alat units)
         1           C   tau(   1) = (   0.0000000   0.5773503   4.0612436  )
         2           C   tau(   2) = (   0.5000000   0.2886751   4.0612436  )

     number of k points=    62  Methfessel-Paxton smearing, width (Ry)=  0.0200
                       cart. coord. in units 2pi/alat
        k(    1) = (   0.0000000   0.0000000   0.0000000), wk =   0.0138889
        k(    2) = (   0.3333333   0.5773503   0.0000000), wk =   0.0000000
        k(    3) = (   0.0000000   0.0962250   0.0000000), wk =   0.0833333
        k(    4) = (   0.3333333   0.6735753   0.0000000), wk =   0.0000000
        k(    5) = (   0.0000000   0.1924501   0.0000000), wk =   0.0833333
        k(    6) = (   0.3333333   0.7698004   0.0000000), wk =   0.0000000
        k(    7) = (   0.0000000   0.2886751   0.0000000), wk =   0.0833333
        k(    8) = (   0.3333333   0.8660254   0.0000000), wk =   0.0000000
        k(    9) = (   0.0000000   0.3849002   0.0000000), wk =   0.0833333
        k(   10) = (   0.3333333   0.9622504   0.0000000), wk =   0.0000000
        k(   11) = (   0.0000000   0.4811252   0.0000000), wk =   0.0833333
        k(   12) = (   0.3333333   1.0584755   0.0000000), wk =   0.0000000
        k(   13) = (   0.0000000  -0.5773503   0.0000000), wk =   0.0416667
        k(   14) = (   0.3333333   0.0000000   0.0000000), wk =   0.0000000
        k(   15) = (   0.0833333   0.1443376   0.0000000), wk =   0.0416667
        k(   16) = (   0.4166667   0.7216878   0.0000000), wk =   0.0000000
        k(   17) = (   0.0833333   0.2405626   0.0000000), wk =   0.0833333
        k(   18) = (   0.4166667   0.8179129   0.0000000), wk =   0.0000000
        k(   19) = (   0.0833333   0.3367877   0.0000000), wk =   0.0833333
        k(   20) = (   0.4166667   0.9141379   0.0000000), wk =   0.0000000
        k(   21) = (   0.0833333   0.4330127   0.0000000), wk =   0.0833333
        k(   22) = (   0.4166667   1.0103630   0.0000000), wk =   0.0000000
        k(   23) = (   0.0833333   0.5292377   0.0000000), wk =   0.0833333
        k(   24) = (   0.4166667   1.1065880   0.0000000), wk =   0.0000000
        k(   25) = (   0.1666667   0.2886751   0.0000000), wk =   0.0416667
        k(   26) = (   0.5000000   0.8660254   0.0000000), wk =   0.0000000
        k(   27) = (   0.1666667   0.3849002   0.0000000), wk =   0.0833333
        k(   28) = (   0.5000000   0.9622504   0.0000000), wk =   0.0000000
        k(   29) = (   0.1666667   0.4811252   0.0000000), wk =   0.0833333
        k(   30) = (   0.5000000   1.0584755   0.0000000), wk =   0.0000000
        k(   31) = (   0.1666667   0.5773503   0.0000000), wk =   0.0416667
        k(   32) = (   0.5000000   1.1547005   0.0000000), wk =   0.0000000
        k(   33) = (   0.2500000   0.4330127   0.0000000), wk =   0.0416667
        k(   34) = (   0.5833333   1.0103630   0.0000000), wk =   0.0000000
        k(   35) = (   0.2500000   0.5292377   0.0000000), wk =   0.0833333
        k(   36) = (   0.5833333   1.1065880   0.0000000), wk =   0.0000000
        k(   37) = (   0.3333333   0.5773503   0.0000000), wk =   0.0138889
        k(   38) = (   0.6666667   1.1547005   0.0000000), wk =   0.0000000
        k(   39) = (  -0.0833333   0.1443376   0.0000000), wk =   0.0416667
        k(   40) = (   0.2500000   0.7216878   0.0000000), wk =   0.0000000
        k(   41) = (  -0.1666667   0.1924501   0.0000000), wk =   0.0833333
        k(   42) = (   0.1666667   0.7698004   0.0000000), wk =   0.0000000
        k(   43) = (  -0.2500000   0.2405626   0.0000000), wk =   0.0833333
        k(   44) = (   0.0833333   0.8179129   0.0000000), wk =   0.0000000
        k(   45) = (  -0.3333333   0.2886751   0.0000000), wk =   0.0833333
        k(   46) = (   0.0000000   0.8660254   0.0000000), wk =   0.0000000
        k(   47) = (  -0.4166667   0.3367877   0.0000000), wk =   0.0833333
        k(   48) = (  -0.0833333   0.9141379   0.0000000), wk =   0.0000000
        k(   49) = (  -0.1666667   0.2886751   0.0000000), wk =   0.0416667
        k(   50) = (   0.1666667   0.8660254   0.0000000), wk =   0.0000000
        k(   51) = (  -0.2500000   0.3367877   0.0000000), wk =   0.0833333
        k(   52) = (   0.0833333   0.9141379   0.0000000), wk =   0.0000000
        k(   53) = (  -0.3333333   0.3849002   0.0000000), wk =   0.0833333
        k(   54) = (   0.0000000   0.9622504   0.0000000), wk =   0.0000000
        k(   55) = (  -0.4166667   0.4330127   0.0000000), wk =   0.0416667
        k(   56) = (  -0.0833333   1.0103630   0.0000000), wk =   0.0000000
        k(   57) = (  -0.2500000   0.4330127   0.0000000), wk =   0.0416667
        k(   58) = (   0.0833333   1.0103630   0.0000000), wk =   0.0000000
        k(   59) = (  -0.3333333   0.4811252   0.0000000), wk =   0.0833333
        k(   60) = (   0.0000000   1.0584755   0.0000000), wk =   0.0000000
        k(   61) = (  -0.3333333   0.5773503   0.0000000), wk =   0.0138889
        k(   62) = (   0.0000000   1.1547005   0.0000000), wk =   0.0000000

     The potential is recalculated from file :
     ./_ph0/2Dgraphene.save/charge-density

     negative rho (up, down):  6.981E-05 0.000E+00
     Starting wfcs are    8 atomic wfcs

     Band Structure Calculation
     Davidson diagonalization with overlap

     ethr =  1.25E-10,  avg # of iterations = 23.7

     End of band structure calculation

[...]

          k =-0.3333 0.5774 0.0000 ( 10245 PWs)   bands (ev):

[...]

          k = 0.0000 1.1547 0.0000 ( 10069 PWs)   bands (ev):

   -21.8707  -9.9838  -5.4204  -5.4204   0.8987   1.6461   1.8496   2.8099

     the Fermi energy is    -2.3445 ev

     Writing output data file ./_ph0/2Dgraphene.save/

     bravais-lattice index     =            4
     lattice parameter (alat)  =       4.6531  a.u.
     unit-cell volume          =     708.6620 (a.u.)^3
     number of atoms/cell      =            2
     number of atomic types    =            1
     kinetic-energy cut-off    =      90.0000  Ry
     charge density cut-off    =     270.0000  Ry
     convergence threshold     =      1.0E-20
     beta                      =       0.7000
     number of iterations used =            4
     Exchange-correlation= PBE
                           (   1   4   3   4   0   0   0)

     celldm(1)=    4.65307  celldm(2)=    0.00000  celldm(3)=    8.12249
     celldm(4)=    0.00000  celldm(5)=    0.00000  celldm(6)=    0.00000

     crystal axes: (cart. coord. in units of alat)
               a(1) = (  1.0000  0.0000  0.0000 )
               a(2) = ( -0.5000  0.8660  0.0000 )
               a(3) = (  0.0000  0.0000  8.1225 )

     reciprocal axes: (cart. coord. in units 2 pi/alat)
               b(1) = (  1.0000  0.5774  0.0000 )
               b(2) = (  0.0000  1.1547  0.0000 )
               b(3) = (  0.0000  0.0000  0.1231 )

     Atoms inside the unit cell:

     Cartesian axes

     site n.  atom      mass           positions (alat units)
        1     C   12.0107   tau(    1) = (    0.00000    0.57735    4.06124  )
        2     C   12.0107   tau(    2) = (    0.50000    0.28868    4.06124  )

     Computing dynamical matrix for
                    q = (   0.3333333   0.5773503   0.0000000 )

     12 Sym.Ops. (no q -> -q+G )

     G cutoff =  148.0757  (   2650 G-vectors)     FFT grid: ( 25, 25,200)

     number of k points=    62  Methfessel-Paxton smearing, width (Ry)=  0.0200

     PseudoPot. # 1 for C  read from file:
     ../Pseudo/C.pbe-rrkjus.UPF
     MD5 check sum: 00fb224312de0c5b6853bd333518df6f
     Pseudo is Ultrasoft, Zval =  4.0
     Generated by new atomic code, or converted to UPF format
     Using radial grid of  627 points,  4 beta functions with:
                l(1) =   0
                l(2) =   0
                l(3) =   1
                l(4) =   1
     Q(r) pseudized with 0 coefficients

     Mode symmetry, D_3h (-62m) point group:

     Atomic displacements:
     There are    4 irreducible representations

[...]

     Representation     4      2 modes -  To be done

     Alpha used in Ewald sum =   2.8000

[...]

     Representation #   2 mode #   2

[...]

     Representation #   4 modes #   5   6

     Self-consistent Calculation

[...]

      thresh= 8.007E-11 alpha_mix =  0.700 |ddv_scf|^2 =  3.642E-21

     End of self-consistent calculation

     Convergence has been achieved

     Number of q in the star =    2
     List of q in the star:
          1   0.333333333   0.577350269   0.000000000
          2  -0.333333333   0.577350269   0.000000000

     Diagonalizing the dynamical matrix

     q = (    0.333333333   0.577350269   0.000000000 )

     freq (    1) =      16.171642 [THz] =     539.427915 [cm-1]
     freq (    2) =      16.171642 [THz] =     539.427915 [cm-1]
     freq (    3) =      29.870338 [THz] =     996.367220 [cm-1]
     freq (    4) =      35.938620 [THz] =    1198.783312 [cm-1]
     freq (    5) =      36.308047 [THz] =    1211.106073 [cm-1]
     freq (    6) =      36.308047 [THz] =    1211.106074 [cm-1]

     Mode symmetry, D_3h (-62m) point group:

     freq (   1-   2) =        539.4  [cm-1]   --> E''
     freq (   3-   3) =        996.4  [cm-1]   --> A'_2
     freq (   4-   4) =       1198.8  [cm-1]   --> A'_1
     freq (   5-   6) =       1211.1  [cm-1]   --> E'

     General routines

     Parallel routines

     INITIALIZATION:

     DYNAMICAL MATRIX:

      General routines

   This run was terminated on:  12:45:17  18Feb2022

   JOB DONE.