     Program PWSCF v.6.7MaX starts on 15Nov2021 at 11:47:33

     R & G space division:  proc/nbgrp/npool/nimage =      10
     Waiting for input...
     Reading input from standard input

     Current dimensions of program PWSCF are:
     Max number of different atomic species (ntypx) = 10
     Max number of k-points (npk) =  40000
     Max angular momentum in pseudopotentials (lmaxx) =  3
     file Mo.pbe-spn-kjpaw_psl.0.2.UPF: wavefunction(s)  4D renormalized
     file S.pbe-n-kjpaw_psl.0.1.UPF: wavefunction(s)  3P renormalized

     bravais-lattice index     =            4
     lattice parameter (alat)  =       5.9830  a.u.
     unit-cell volume          =     927.3798 (a.u.)^3
     number of atoms/cell      =            3
     number of atomic types    =            2
     number of electrons       =        26.00
     number of Kohn-Sham states=           13
     kinetic-energy cutoff     =      50.0000  Ry
     charge density cutoff     =     500.0000  Ry
     scf convergence threshold =      1.0E-08
     mixing beta               =       0.5000
     number of iterations used =            8  local-TF  mixing
     energy convergence thresh.=      1.0E-04
     force convergence thresh. =      1.0E-04
     press convergence thresh. =      5.0E-01
     Exchange-correlation= SLA  PW   PBX  PBC
                           (   1   4   3   4   0   0   0)
     nstep                     =           50

     celldm(1)=   5.983000  celldm(2)=   0.000000  celldm(3)=   5.000000
     celldm(4)=   0.000000  celldm(5)=   0.000000  celldm(6)=   0.000000

     crystal axes: (cart. coord. in units of alat)
               a(1) = (   1.000000   0.000000   0.000000 )
               a(2) = (  -0.500000   0.866025   0.000000 )
               a(3) = (   0.000000   0.000000   5.000000 )

     reciprocal axes: (cart. coord. in units 2 pi/alat)
               b(1) = (  1.000000  0.577350  0.000000 )
               b(2) = (  0.000000  1.154701  0.000000 )
               b(3) = (  0.000000  0.000000  0.200000 )

     PseudoPot. # 1 for Mo read from file:
     ../Pseudo/Mo.pbe-spn-kjpaw_psl.0.2.UPF
     MD5 check sum: 99c4efbabb9e14294ed14bd31c5e2f8a
     Pseudo is Projector augmented-wave + core cor, Zval = 14.0
     Generated using "atomic" code by A. Dal Corso  v.5.0.2 svn rev. 9415
     Shape of augmentation charge: PSQ
     Using radial grid of 1229 points,  6 beta functions with:
                l(1) =   0
                l(2) =   0
                l(3) =   1
                l(4) =   1
                l(5) =   2
                l(6) =   2
     Q(r) pseudized with 0 coefficients

     PseudoPot. # 2 for S  read from file:
     ../Pseudo/S.pbe-n-kjpaw_psl.0.1.UPF
     MD5 check sum: 5138ed5699b2c5d2fdac7c35a9631f5b
     Pseudo is Projector augmented-wave + core cor, Zval =  6.0
     Generated using "atomic" code by A. Dal Corso  v.5.0.2 svn rev. 9415
     Shape of augmentation charge: PSQ
     Using radial grid of 1151 points,  4 beta functions with:
                l(1) =   0
                l(2) =   0
                l(3) =   1
                l(4) =   1
     Q(r) pseudized with 0 coefficients

     atomic species   valence    mass     pseudopotential
        Mo            14.00    95.94000     Mo( 1.00)
        S              6.00    32.06500     S ( 1.00)

      4 Sym. Ops. (no inversion) found

   Cartesian axes

     site n.     atom                  positions (alat units)
         1           Mo  tau(   1) = (   0.0000000   0.0000000   0.0000000  )
         2           S   tau(   2) = (   0.0000000   0.5819251   0.4947519  )
         3           S   tau(   3) = (   0.0000000   0.5819251  -0.4947519  )

     number of k points=    43
                       cart. coord. in units 2pi/alat
        k(    1) = (   0.0000000   0.0000000   0.0000000), wk =   0.0138889
        k(    2) = (   0.0000000   0.0962250   0.0000000), wk =   0.0277778
        k(    3) = (   0.0000000   0.1924501   0.0000000), wk =   0.0277778
        k(    4) = (   0.0000000   0.2886751   0.0000000), wk =   0.0277778
        k(    5) = (   0.0000000   0.3849002   0.0000000), wk =   0.0277778
        k(    6) = (   0.0000000   0.4811252   0.0000000), wk =   0.0277778
        k(    7) = (   0.0000000  -0.5773503   0.0000000), wk =   0.0138889
        k(    8) = (   0.0833333   0.1443376   0.0000000), wk =   0.0555556
        k(    9) = (   0.0833333   0.2405626   0.0000000), wk =   0.0555556
        k(   10) = (   0.0833333   0.3367877   0.0000000), wk =   0.0555556
        k(   11) = (   0.0833333   0.4330127   0.0000000), wk =   0.0555556
        k(   12) = (   0.0833333   0.5292377   0.0000000), wk =   0.0555556
        k(   13) = (   0.1666667   0.2886751   0.0000000), wk =   0.0555556
        k(   14) = (   0.1666667   0.3849002   0.0000000), wk =   0.0555556
        k(   15) = (   0.1666667   0.4811252   0.0000000), wk =   0.0555556
        k(   16) = (   0.1666667   0.5773503   0.0000000), wk =   0.0277778
        k(   17) = (   0.2500000   0.4330127   0.0000000), wk =   0.0555556
        k(   18) = (   0.2500000   0.5292377   0.0000000), wk =   0.0555556
        k(   19) = (   0.3333333   0.5773503   0.0000000), wk =   0.0277778
        k(   20) = (  -0.0833333   0.0481125   0.0000000), wk =   0.0555556
        k(   21) = (  -0.1666667   0.0962250   0.0000000), wk =   0.0555556
        k(   22) = (  -0.2500000   0.1443376   0.0000000), wk =   0.0555556
        k(   23) = (  -0.3333333   0.1924501   0.0000000), wk =   0.0555556
        k(   24) = (  -0.4166667   0.2405626   0.0000000), wk =   0.0555556
        k(   25) = (   0.5000000  -0.2886751   0.0000000), wk =   0.0277778
        k(   26) = (   0.1666667   0.0000000   0.0000000), wk =   0.0277778
        k(   27) = (  -0.1666667   0.1924501   0.0000000), wk =   0.0555556
        k(   28) = (   0.2500000   0.0481125   0.0000000), wk =   0.0555556
        k(   29) = (  -0.2500000   0.2405626   0.0000000), wk =   0.0555556
        k(   30) = (   0.3333333   0.0962250   0.0000000), wk =   0.0555556
        k(   31) = (  -0.3333333   0.2886751   0.0000000), wk =   0.0555556
        k(   32) = (   0.4166667   0.1443376   0.0000000), wk =   0.0555556
        k(   33) = (  -0.4166667   0.3367877   0.0000000), wk =   0.0555556
        k(   34) = (   0.5000000   0.1924501   0.0000000), wk =   0.0555556
        k(   35) = (   0.3333333   0.0000000   0.0000000), wk =   0.0277778
        k(   36) = (  -0.2500000   0.3367877   0.0000000), wk =   0.0555556
        k(   37) = (   0.4166667   0.0481125   0.0000000), wk =   0.0555556
        k(   38) = (  -0.3333333   0.3849002   0.0000000), wk =   0.0555556
        k(   39) = (   0.5000000   0.0962250   0.0000000), wk =   0.0555556
        k(   40) = (  -0.4166667   0.4330127   0.0000000), wk =   0.0555556
        k(   41) = (   0.5000000   0.0000000   0.0000000), wk =   0.0277778
        k(   42) = (  -0.3333333   0.4811252   0.0000000), wk =   0.0555556
        k(   43) = (   0.5833333   0.0481125   0.0000000), wk =   0.0555556

     Check: negative core charge=   -0.000001

     Initial potential from superposition of free atoms

     starting charge   25.99864, renormalised to   26.00000

     negative rho (up, down):  6.044E-05 0.000E+00
     Starting wfcs are   21 randomized atomic wfcs
     Checking if some PAW data can be deallocated...

     Self-consistent Calculation

     iteration #  1     ecut=    50.00 Ry     beta= 0.50
     Davidson diagonalization with overlap
     ethr =  1.00E-02,  avg # of iterations =  2.0

     negative rho (up, down):  2.522E-07 0.000E+00

     total energy              =    -496.64683543 Ry
     estimated scf accuracy    <       0.48512856 Ry

[...]

     End of self-consistent calculation

          k = 0.0000 0.0000 0.0000 (  5599 PWs)   bands (ev):

   -60.4671 -34.6093 -34.3851 -34.3812 -13.7268 -12.4280  -5.2547  -2.1882
    -2.1582  -1.4039  -1.1097  -0.9787   0.3493

[...]

          k =-0.0833 0.0481 0.0000 (  5565 PWs)   bands (ev):

[...]

     highest occupied level (ev):     0.4169

!    total energy              =    -496.68953367 Ry

     total all-electron energy =     -9695.020920 Ry
     estimated scf accuracy    <          9.1E-10 Ry

     The total energy is the sum of the following terms:
     one-electron contribution =    -780.65492960 Ry
     hartree contribution      =     394.33765701 Ry
     xc contribution           =     -42.59086080 Ry
     ewald contribution        =     239.17117216 Ry
     one-center paw contrib.   =    -306.95257244 Ry

     convergence has been achieved in  26 iterations

[...]

     Forces acting on atoms (cartesian axes, Ry/au):

     atom    1 type  1   force =     0.00000000    0.01152817    0.00000000
     atom    2 type  2   force =     0.00000000   -0.00576409    0.00673115
     atom    3 type  2   force =     0.00000000   -0.00576409   -0.00673115

     Total force =     0.017028     Total SCF correction =     0.000071

     Computing stress (Cartesian axis) and pressure

     negative rho (up, down):  5.697E-05 0.000E+00
          total   stress  (Ry/bohr**3)                   (kbar)     P=        8.90
   0.00007924   0.00000000   0.00000000           11.66        0.00        0.00
   0.00000000   0.00006362   0.00000000            0.00        9.36        0.00
   0.00000000   0.00000000   0.00003875            0.00        0.00        5.70

     BFGS Geometry Optimization
     Energy error            =      0.0E+00
     Gradient error          =      1.2E-02
     Cell gradient error     =      7.9E-05

     number of scf cycles    =   1
     number of bfgs steps    =   0

     enthalpy new            =    -496.6895336682 Ry

     new trust radius        =       0.0120652729 bohr
     new conv_thr            =       0.0000000100 Ry

     new unit-cell volume =    931.59636 a.u.^3 (   138.04834 Ang^3 )
     density =      1.92543 g/cm^3

CELL_PARAMETERS (alat=  5.98300000)
   1.001980972   0.000000000   0.000000000
  -0.500990486   0.867402804   0.000000000
   0.000000000   0.000000000   5.004843254

ATOMIC_POSITIONS (alat)
Mo            0.0000000000        0.0019298861        0.0000000000
S             0.0000000000        0.5818856946        0.4963572822
S             0.0000000000        0.5818856946       -0.4963572822

     Writing output data file ./MoS2.save/
     NEW-OLD atomic charge density approx. for the potential

[...]

     negative rho (up, down):  5.101E-05 0.000E+00
     extrapolated charge   26.11767, renormalised to   26.00000

[...]

     Energy error            =      4.1E-04
     Gradient error          =      4.1E-03
     Cell gradient error     =      4.8E-05

[...]

     enthalpy old            =    -496.6895336682 Ry
     enthalpy new            =    -496.6899396189 Ry

     CASE: enthalpy_new < enthalpy_old

[...]

     iteration #  1     ecut=    50.00 Ry     beta= 0.50
     Davidson diagonalization with overlap
     c_bands:  1 eigenvalues not converged
     c_bands:  1 eigenvalues not converged
     ethr =  1.00E-06,  avg # of iterations = 17.0

[...]

     CASE: enthalpy_new > enthalpy_old

[...]

     number of scf cycles    =  42
     number of bfgs steps    =  40

     enthalpy old            =    -496.6905844336 Ry
     enthalpy new            =    -496.6905864276 Ry

     CASE: enthalpy_new < enthalpy_old

     new trust radius        =       0.0744874145 bohr
     new conv_thr            =            1.0E-10 Ry

     new unit-cell volume =    671.90508 a.u.^3 (    99.56606 Ang^3 )
     density =      2.66961 g/cm^3

[...]

ATOMIC_POSITIONS (alat)
Mo            0.0000000000        0.0030497676        0.0000000000
S             0.0000000000        0.5850225345        0.4949137407
S             0.0000000000        0.5850225345       -0.4949137407

     Writing output data file ./MoS2.save/
     NEW-OLD atomic charge density approx. for the potential

     negative rho (up, down):  4.803E-06 0.000E+00
     extrapolated charge   26.37519, renormalised to   26.00000

[...]

     iteration #  1     ecut=    50.00 Ry     beta= 0.50
     Davidson diagonalization with overlap
     c_bands:  1 eigenvalues not converged
     ethr =  1.00E-06,  avg # of iterations = 16.5

[...]

     Total force =     0.000147     Total SCF correction =     0.000017
     SCF correction compared to forces is large: reduce conv_thr to get better values

[...]

     Energy error            =      1.8E-06
     Gradient error          =      9.1E-05
     Cell gradient error     =      1.0E-06

     bfgs converged in  43 scf cycles and  41 bfgs steps
     (criteria: energy <  1.0E-04 Ry, force <  1.0E-04Ry/Bohr, cell <  5.0E-01kbar)

     End of BFGS Geometry Optimization

     Final enthalpy =    -496.6905882053 Ry

     File ./MoS2.bfgs deleted, as requested
Begin final coordinates
     new unit-cell volume =    671.90508 a.u.^3 (    99.56606 Ang^3 )
     density =      2.66961 g/cm^3

CELL_PARAMETERS (alat=  5.98300000)
   1.008067710   0.000000000   0.000000000
  -0.504033855   0.872904381   0.000000000
   0.000000000   0.000000000   3.565287333

ATOMIC_POSITIONS (alat)
Mo            0.0000000000        0.0030497676        0.0000000000
S             0.0000000000        0.5850225345        0.4949137407
S             0.0000000000        0.5850225345       -0.4949137407
End final coordinates

     Writing output data file ./MoS2.save/

     Final scf calculation at the relaxed structure.
     The G-vectors are recalculated for the final unit cell
     Results may differ from those at the preceding step.

     bravais-lattice index     =            4
     lattice parameter (alat)  =       5.9830  a.u.
     unit-cell volume          =     671.9051 (a.u.)^3
     number of atoms/cell      =            3
     number of atomic types    =            2
     number of electrons       =        26.00
     number of Kohn-Sham states=           13
     kinetic-energy cutoff     =      50.0000  Ry
     charge density cutoff     =     500.0000  Ry
     scf convergence threshold =      1.0E-10
     mixing beta               =       0.5000
     number of iterations used =            8  local-TF  mixing
     press convergence thresh. =      5.0E-01
     Exchange-correlation= SLA  PW   PBX  PBC
                           (   1   4   3   4   0   0   0)

     celldm(1)=   5.983000  celldm(2)=   0.000000  celldm(3)=   5.000000
     celldm(4)=   0.000000  celldm(5)=   0.000000  celldm(6)=   0.000000

     crystal axes: (cart. coord. in units of alat)
               a(1) = (   1.008068   0.000000   0.000000 )
               a(2) = (  -0.504034   0.872904   0.000000 )
               a(3) = (   0.000000   0.000000   3.565287 )

     reciprocal axes: (cart. coord. in units 2 pi/alat)
               b(1) = (  0.991997  0.572800  0.000000 )
               b(2) = (  0.000000  1.145601  0.000000 )
               b(3) = (  0.000000  0.000000  0.280482 )

     PseudoPot. # 1 for Mo read from file:
     ../Pseudo/Mo.pbe-spn-kjpaw_psl.0.2.UPF
     MD5 check sum: 99c4efbabb9e14294ed14bd31c5e2f8a
     Pseudo is Projector augmented-wave + core cor, Zval = 14.0
     Generated using "atomic" code by A. Dal Corso  v.5.0.2 svn rev. 9415
     Shape of augmentation charge: PSQ
     Using radial grid of 1229 points,  6 beta functions with:
                l(1) =   0
                l(2) =   0
                l(3) =   1
                l(4) =   1
                l(5) =   2
                l(6) =   2
     Q(r) pseudized with 0 coefficients

     PseudoPot. # 2 for S  read from file:
     ../Pseudo/S.pbe-n-kjpaw_psl.0.1.UPF
     MD5 check sum: 5138ed5699b2c5d2fdac7c35a9631f5b
     Pseudo is Projector augmented-wave + core cor, Zval =  6.0
     Generated using "atomic" code by A. Dal Corso  v.5.0.2 svn rev. 9415
     Shape of augmentation charge: PSQ
     Using radial grid of 1151 points,  4 beta functions with:
                l(1) =   0
                l(2) =   0
                l(3) =   1
                l(4) =   1
     Q(r) pseudized with 0 coefficients

     atomic species   valence    mass     pseudopotential
        Mo            14.00    95.94000     Mo( 1.00)
        S              6.00    32.06500     S ( 1.00)

      4 Sym. Ops. (no inversion) found

   Cartesian axes

     site n.     atom                  positions (alat units)
         1           Mo  tau(   1) = (   0.0000000   0.0030498   0.0000000  )
         2           S   tau(   2) = (   0.0000000   0.5850225   0.4949137  )
         3           S   tau(   3) = (   0.0000000   0.5850225  -0.4949137  )

     number of k points=    43
                       cart. coord. in units 2pi/alat
        k(    1) = (   0.0000000   0.0000000   0.0000000), wk =   0.0138889
        k(    2) = (   0.0000000   0.0954667   0.0000000), wk =   0.0277778
        k(    3) = (   0.0000000   0.1909335   0.0000000), wk =   0.0277778
        k(    4) = (   0.0000000   0.2864002   0.0000000), wk =   0.0277778
        k(    5) = (   0.0000000   0.3818669   0.0000000), wk =   0.0277778
        k(    6) = (   0.0000000   0.4773337   0.0000000), wk =   0.0277778
        k(    7) = (   0.0000000  -0.5728004   0.0000000), wk =   0.0138889
        k(    8) = (   0.0826664   0.1432001   0.0000000), wk =   0.0555556
        k(    9) = (   0.0826664   0.2386668   0.0000000), wk =   0.0555556
        k(   10) = (   0.0826664   0.3341336   0.0000000), wk =   0.0555556
        k(   11) = (   0.0826664   0.4296003   0.0000000), wk =   0.0555556
        k(   12) = (   0.0826664   0.5250671   0.0000000), wk =   0.0555556
        k(   13) = (   0.1653328   0.2864002   0.0000000), wk =   0.0555556
        k(   14) = (   0.1653328   0.3818669   0.0000000), wk =   0.0555556
        k(   15) = (   0.1653328   0.4773337   0.0000000), wk =   0.0555556
        k(   16) = (   0.1653328   0.5728004   0.0000000), wk =   0.0277778
        k(   17) = (   0.2479992   0.4296003   0.0000000), wk =   0.0555556
        k(   18) = (   0.2479992   0.5250671   0.0000000), wk =   0.0555556
        k(   19) = (   0.3306656   0.5728004   0.0000000), wk =   0.0277778
        k(   20) = (  -0.0826664   0.0477334   0.0000000), wk =   0.0555556
        k(   21) = (  -0.1653328   0.0954667   0.0000000), wk =   0.0555556
        k(   22) = (  -0.2479992   0.1432001   0.0000000), wk =   0.0555556
        k(   23) = (  -0.3306656   0.1909335   0.0000000), wk =   0.0555556
        k(   24) = (  -0.4133320   0.2386668   0.0000000), wk =   0.0555556
        k(   25) = (   0.4959984  -0.2864002   0.0000000), wk =   0.0277778
        k(   26) = (   0.1653328   0.0000000   0.0000000), wk =   0.0277778
        k(   27) = (  -0.1653328   0.1909335   0.0000000), wk =   0.0555556
        k(   28) = (   0.2479992   0.0477334   0.0000000), wk =   0.0555556
        k(   29) = (  -0.2479992   0.2386668   0.0000000), wk =   0.0555556
        k(   30) = (   0.3306656   0.0954667   0.0000000), wk =   0.0555556
        k(   31) = (  -0.3306656   0.2864002   0.0000000), wk =   0.0555556
        k(   32) = (   0.4133320   0.1432001   0.0000000), wk =   0.0555556
        k(   33) = (  -0.4133320   0.3341336   0.0000000), wk =   0.0555556
        k(   34) = (   0.4959984   0.1909335   0.0000000), wk =   0.0555556
        k(   35) = (   0.3306656   0.0000000   0.0000000), wk =   0.0277778
        k(   36) = (  -0.2479992   0.3341336   0.0000000), wk =   0.0555556
        k(   37) = (   0.4133320   0.0477334   0.0000000), wk =   0.0555556
        k(   38) = (  -0.3306656   0.3818669   0.0000000), wk =   0.0555556
        k(   39) = (   0.4959984   0.0954667   0.0000000), wk =   0.0555556
        k(   40) = (  -0.4133320   0.4296003   0.0000000), wk =   0.0555556
        k(   41) = (   0.4959984   0.0000000   0.0000000), wk =   0.0277778
        k(   42) = (  -0.3306656   0.4773337   0.0000000), wk =   0.0555556
        k(   43) = (   0.5786648   0.0477334   0.0000000), wk =   0.0555556

     Check: negative core charge=   -0.000001

     Initial potential from superposition of free atoms

     starting charge   25.99864, renormalised to   26.00000
     Starting wfcs are   21 randomized atomic wfcs
     Checking if some PAW data can be deallocated...

     Self-consistent Calculation

[...]

     total energy              =    -496.69024540 Ry
     estimated scf accuracy    <          6.6E-09 Ry

     iteration # 29     ecut=    50.00 Ry     beta= 0.50
     Davidson diagonalization with overlap
     ethr =  2.54E-11,  avg # of iterations =  3.4

[...]

     End of self-consistent calculation

[...]

          k =-0.3307 0.4773 0.0000 (  4019 PWs)   bands (ev):

[...]

          k = 0.5787 0.0477 0.0000 (  4021 PWs)   bands (ev):

   -58.0569 -32.3190 -32.2086 -32.1396  -9.2073  -9.0838  -2.3928  -2.1281
    -0.9847  -0.3838  -0.2046   0.8416   2.6200

     highest occupied level (ev):     2.8091

!    total energy              =    -496.69024540 Ry

     total all-electron energy =     -9695.021632 Ry
     estimated scf accuracy    <          1.8E-11 Ry

     The total energy is the sum of the following terms:
     one-electron contribution =    -417.87322081 Ry
     hartree contribution      =     215.23245809 Ry
     xc contribution           =     -42.55228533 Ry
     ewald contribution        =      55.45275965 Ry
     one-center paw contrib.   =    -306.94995700 Ry

     convergence has been achieved in  29 iterations

     negative rho (up, down):  7.730E-08 0.000E+00

     Forces acting on atoms (cartesian axes, Ry/au):

     atom    1 type  1   force =     0.00000000    0.00005786    0.00000000
     atom    2 type  2   force =     0.00000000   -0.00002893   -0.00007761
     atom    3 type  2   force =     0.00000000   -0.00002893    0.00007761

     Total force =     0.000131     Total SCF correction =     0.000007

     Computing stress (Cartesian axis) and pressure

     negative rho (up, down):  7.730E-08 0.000E+00
          total   stress  (Ry/bohr**3)                   (kbar)     P=       -0.46
  -0.00000213   0.00000000   0.00000000           -0.31        0.00        0.00
   0.00000000  -0.00000151   0.00000000            0.00       -0.22        0.00
   0.00000000   0.00000000  -0.00000577            0.00        0.00       -0.85

     Writing output data file ./MoS2.save/

     General routines

     Parallel routines

   This run was terminated on:  12:35:34  15Nov2021

   JOB DONE.