     Program PHONON v.6.7MaX starts on 14Jun2022 at 15:56:39

     R & G space division:  proc/nbgrp/npool/nimage =      20
     Waiting for input...
     Reading input from standard input

     Reading xml data from directory:

     ./Silicon.save/
     Message from routine qexsd_readschema :
     input info not found or not readable in xml file

     IMPORTANT: XC functional enforced from input :
     Exchange-correlation= PBE
                           (   1   4   3   4   0   0   0)
     Any further DFT definition will be discarded
     Please, verify this is what you really want

     Reading collected, re-writing distributed wavefunctions

     Dynamical matrices for ( 5, 5, 5)  uniform grid of q-points
     (  10 q-points):
       N         xq(1)         xq(2)         xq(3)
       1   0.000000000   0.000000000   0.000000000
       2  -0.200000000   0.200000000  -0.200000000
       3  -0.400000000   0.400000000  -0.400000000
       4   0.000000000   0.400000000   0.000000000
       5  -0.200000000   0.600000000  -0.200000000
       6   0.600000000  -0.200000000   0.600000000
       7   0.400000000   0.000000000   0.400000000
       8   0.000000000   0.800000000   0.000000000
       9   0.800000000   0.000000000   0.800000000
      10   0.600000000  -0.200000000   1.000000000

     Calculation of q =    0.0000000   0.0000000   0.0000000

     bravais-lattice index     =            2
     lattice parameter (alat)  =      10.2623  a.u.
     unit-cell volume          =     270.1967 (a.u.)^3
     number of atoms/cell      =            2
     number of atomic types    =            1
     kinetic-energy cut-off    =      40.0000  Ry
     charge density cut-off    =     200.0000  Ry
     convergence threshold     =      1.0E-20
     beta                      =       0.7000
     number of iterations used =            4
     Exchange-correlation= PBE
                           (   1   4   3   4   0   0   0)

     celldm(1)=   10.26235  celldm(2)=    0.00000  celldm(3)=    0.00000
     celldm(4)=    0.00000  celldm(5)=    0.00000  celldm(6)=    0.00000

     crystal axes: (cart. coord. in units of alat)
               a(1) = ( -0.5000  0.0000  0.5000 )
               a(2) = (  0.0000  0.5000  0.5000 )
               a(3) = ( -0.5000  0.5000  0.0000 )

     reciprocal axes: (cart. coord. in units 2 pi/alat)
               b(1) = ( -1.0000 -1.0000  1.0000 )
               b(2) = (  1.0000  1.0000  1.0000 )
               b(3) = ( -1.0000  1.0000 -1.0000 )

     Atoms inside the unit cell:

     Cartesian axes

     site n.  atom      mass           positions (alat units)
        1     Si  28.0860   tau(    1) = (    0.00000    0.00000    0.00000  )
        2     Si  28.0860   tau(    2) = (   -0.25000    0.25000    0.25000  )

     Computing dynamical matrix for
                    q = (   0.0000000   0.0000000   0.0000000 )

     49 Sym.Ops. (with q -> -q+G )

     G cutoff =  533.5359  (    648 G-vectors)     FFT grid: ( 36, 36, 36)
     G cutoff =  426.8287  (    463 G-vectors)  smooth grid: ( 32, 32, 32)
     number of k points=    72

     PseudoPot. # 1 for Si read from file:
     ../Pseudo/Si.pbe-rrkj.UPF
     MD5 check sum: cf7ab5690cd9a85b22c4813f7e365554
     Pseudo is Norm-conserving, Zval =  4.0
     Generated by new atomic code, or converted to UPF format
     Using radial grid of  883 points,  3 beta functions with:
                l(1) =   0
                l(2) =   0
                l(3) =   1

     Mode symmetry, O_h (m-3m)  point group:

     Electric field:
     Dielectric constant
     Born effective charges in two ways

     Atomic displacements:
     There are    2 irreducible representations

     Representation     1      3 modes -  To be done

[...]

     Alpha used in Ewald sum =   2.1000

     Electric Fields Calculation

      thresh= 1.000E-02 alpha_mix =  0.700 |ddv_scf|^2 =  1.183E-07

[...]

     End of electric fields calculation

          Dielectric constant in cartesian axis

          (      12.827461053       0.000000000       0.000000000 )
          (       0.000000000      12.827461053       0.000000000 )
          (       0.000000000       0.000000000      12.827461053 )

          Effective charges (d Force / dE) in cartesian axis

           atom      1   Si
      Ex  (       -0.00668        0.00000        0.00000 )
      Ey  (        0.00000       -0.00668        0.00000 )
      Ez  (        0.00000        0.00000       -0.00668 )
           atom      2   Si
      Ex  (       -0.00668        0.00000        0.00000 )
      Ey  (        0.00000       -0.00668        0.00000 )
      Ez  (        0.00000        0.00000       -0.00668 )

     Representation #   1 modes #   1   2   3

     Self-consistent Calculation

[...]

     End of self-consistent calculation

     Convergence has been achieved

[...]

     Number of q in the star =    1
     List of q in the star:
          1   0.000000000   0.000000000   0.000000000

          Dielectric constant in cartesian axis

          (      12.827461053       0.000000000       0.000000000 )
          (       0.000000000      12.827461053       0.000000000 )
          (       0.000000000       0.000000000      12.827461053 )

          Effective charges (d Force / dE) in cartesian axis

[...]

          Effective charges (d P / du) in cartesian axis

           atom      1   Si
      Px  (       -0.00668        0.00000        0.00000 )
      Py  (        0.00000       -0.00668        0.00000 )
      Pz  (        0.00000        0.00000       -0.00668 )
           atom      2   Si
      Px  (       -0.00668        0.00000        0.00000 )
      Py  (        0.00000       -0.00668        0.00000 )
      Pz  (        0.00000        0.00000       -0.00668 )

     Diagonalizing the dynamical matrix

     q = (    0.000000000   0.000000000   0.000000000 )

     freq (    1) =       0.265684 [THz] =       8.862249 [cm-1]
     freq (    2) =       0.265684 [THz] =       8.862249 [cm-1]
     freq (    3) =       0.265684 [THz] =       8.862249 [cm-1]
     freq (    4) =      15.313356 [THz] =     510.798565 [cm-1]
     freq (    5) =      15.313356 [THz] =     510.798565 [cm-1]
     freq (    6) =      15.313356 [THz] =     510.798565 [cm-1]

     Mode symmetry, O_h (m-3m)  point group:

     freq (   1-   3) =          8.9  [cm-1]   --> T_1u G_15  G_4- I
     freq (   4-   6) =        510.8  [cm-1]   --> T_2g G_25' G_5+ R

[...]

     bravais-lattice index     =            2
     lattice parameter (alat)  =      10.2623  a.u.
     unit-cell volume          =     270.1967 (a.u.)^3
     number of atoms/cell      =            2
     number of atomic types    =            1
     number of electrons       =         8.00
     number of Kohn-Sham states=            4
     kinetic-energy cutoff     =      40.0000  Ry
     charge density cutoff     =     200.0000  Ry
     Exchange-correlation= PBE
                           (   1   4   3   4   0   0   0)

[...]

     atomic species   valence    mass     pseudopotential
        Si             4.00    28.08600     Si( 1.00)

     48 Sym. Ops., with inversion, found

[...]

     site n.     atom                  positions (alat units)
         1           Si  tau(   1) = (   0.0000000   0.0000000   0.0000000  )
         2           Si  tau(   2) = (  -0.2500000   0.2500000   0.2500000  )

     number of k points=   728

     Number of k-points >= 100: set verbosity='high' to print them.

     The potential is recalculated from file :
     ./_ph0/Silicon.save/charge-density

     Starting wfcs are    8 atomic wfcs

     Band Structure Calculation
     Davidson diagonalization with overlap

     ethr =  1.25E-10,  avg # of iterations = 12.3

     End of band structure calculation

     Number of k-points >= 100: set verbosity='high' to print the bands.

     highest occupied level (ev):     6.2271

     Writing output data file ./_ph0/Silicon.save/

[...]

      6 Sym.Ops. (no q -> -q+G )

[...]

     Mode symmetry, C_3v (3m)   point group:

[...]

     Representation #   1 mode #   1

[...]

     freq (   1-   2) =         83.9  [cm-1]   --> E    L_3
     freq (   3-   3) =        188.1  [cm-1]   --> A_1  L_1
     freq (   4-   4) =        492.4  [cm-1]   --> A_1  L_1
     freq (   5-   6) =        496.3  [cm-1]   --> E    L_3

[...]

     Mode symmetry, C_3v (3m)   point group:

     freq (   1-   2) =        107.2  [cm-1]   --> E    L_3
     freq (   3-   3) =        333.9  [cm-1]   --> A_1  L_1
     freq (   4-   4) =        438.4  [cm-1]   --> A_1  L_1
     freq (   5-   6) =        487.5  [cm-1]   --> E    L_3

[...]

     Mode symmetry, C_4v (4mm)  point group:

[...]

     freq (   1-   2) =        112.2  [cm-1]   --> E    G_5 D_5
     freq (   3-   3) =        196.3  [cm-1]   --> A_1  G_1 D_1
     freq (   4-   5) =        479.7  [cm-1]   --> E    G_5 D_5
     freq (   6-   6) =        497.8  [cm-1]   --> B_2  G_4 D_2'

[...]

     Mode symmetry, C_s (m)     point group:

[...]

     freq (   1-   1) =        130.6  [cm-1]   --> A''
     freq (   2-   2) =        171.2  [cm-1]   --> A'
     freq (   3-   3) =        281.1  [cm-1]   --> A'
     freq (   4-   4) =        442.5  [cm-1]   --> A'
     freq (   5-   5) =        470.0  [cm-1]   --> A''
     freq (   6-   6) =        480.8  [cm-1]   --> A'

[...]

     Mode symmetry, C_s (m)     point group:

     freq (   1-   1) =        136.0  [cm-1]   --> A''
     freq (   2-   2) =        188.6  [cm-1]   --> A'
     freq (   3-   3) =        329.4  [cm-1]   --> A'
     freq (   4-   4) =        396.1  [cm-1]   --> A'
     freq (   5-   5) =        469.6  [cm-1]   --> A''
     freq (   6-   6) =        483.9  [cm-1]   --> A'

[...]

     Mode symmetry, C_2v (mm2)  point group:

[...]

     freq (   1-   1) =        122.6  [cm-1]   --> B_1  D_3  S_3
     freq (   2-   2) =        166.5  [cm-1]   --> B_2  D_4  S_4
     freq (   3-   3) =        243.8  [cm-1]   --> A_1  D_1  S_1
     freq (   4-   4) =        446.0  [cm-1]   --> B_2  D_4  S_4
     freq (   5-   5) =        480.0  [cm-1]   --> A_2  D_2  S_2
     freq (   6-   6) =        488.5  [cm-1]   --> A_1  D_1  S_1

[...]

     Representation #   4 modes #   5   6

[...]

     Mode symmetry, C_4v (4mm)  point group:

     freq (   1-   2) =        141.4  [cm-1]   --> E    G_5 D_5
     freq (   3-   3) =        352.0  [cm-1]   --> A_1  G_1 D_1
     freq (   4-   4) =        449.9  [cm-1]   --> B_2  G_4 D_2'
     freq (   5-   6) =        459.9  [cm-1]   --> E    G_5 D_5

[...]

     Mode symmetry, C_2v (mm2)  point group:

     freq (   1-   1) =        144.5  [cm-1]   --> B_1  D_3  S_3
     freq (   2-   2) =        197.2  [cm-1]   --> B_2  D_4  S_4
     freq (   3-   3) =        375.7  [cm-1]   --> A_1  D_1  S_1
     freq (   4-   4) =        375.9  [cm-1]   --> B_2  D_4  S_4
     freq (   5-   5) =        459.2  [cm-1]   --> A_2  D_2  S_2
     freq (   6-   6) =        472.3  [cm-1]   --> A_1  D_1  S_1

     Calculation of q =    0.6000000  -0.2000000   1.0000000

     bravais-lattice index     =            2
     lattice parameter (alat)  =      10.2623  a.u.
     unit-cell volume          =     270.1967 (a.u.)^3
     number of atoms/cell      =            2
     number of atomic types    =            1
     number of electrons       =         8.00
     number of Kohn-Sham states=            4
     kinetic-energy cutoff     =      40.0000  Ry
     charge density cutoff     =     200.0000  Ry
     Exchange-correlation= PBE
                           (   1   4   3   4   0   0   0)

[...]

     atomic species   valence    mass     pseudopotential
        Si             4.00    28.08600     Si( 1.00)

     48 Sym. Ops., with inversion, found

[...]

     site n.     atom                  positions (alat units)
         1           Si  tau(   1) = (   0.0000000   0.0000000   0.0000000  )
         2           Si  tau(   2) = (  -0.2500000   0.2500000   0.2500000  )

     number of k points=  1872

     Number of k-points >= 100: set verbosity='high' to print them.

     The potential is recalculated from file :
     ./_ph0/Silicon.save/charge-density

     Starting wfcs are    8 atomic wfcs

     Band Structure Calculation
     Davidson diagonalization with overlap

     ethr =  1.25E-10,  avg # of iterations = 12.2

     End of band structure calculation

     Number of k-points >= 100: set verbosity='high' to print the bands.

     highest occupied level (ev):     6.2271

     Writing output data file ./_ph0/Silicon.save/

     bravais-lattice index     =            2
     lattice parameter (alat)  =      10.2623  a.u.
     unit-cell volume          =     270.1967 (a.u.)^3
     number of atoms/cell      =            2
     number of atomic types    =            1
     kinetic-energy cut-off    =      40.0000  Ry
     charge density cut-off    =     200.0000  Ry
     convergence threshold     =      1.0E-20
     beta                      =       0.7000
     number of iterations used =            4
     Exchange-correlation= PBE
                           (   1   4   3   4   0   0   0)

     celldm(1)=   10.26235  celldm(2)=    0.00000  celldm(3)=    0.00000
     celldm(4)=    0.00000  celldm(5)=    0.00000  celldm(6)=    0.00000

     crystal axes: (cart. coord. in units of alat)
               a(1) = ( -0.5000  0.0000  0.5000 )
               a(2) = (  0.0000  0.5000  0.5000 )
               a(3) = ( -0.5000  0.5000  0.0000 )

     reciprocal axes: (cart. coord. in units 2 pi/alat)
               b(1) = ( -1.0000 -1.0000  1.0000 )
               b(2) = (  1.0000  1.0000  1.0000 )
               b(3) = ( -1.0000  1.0000 -1.0000 )

     Atoms inside the unit cell:

     Cartesian axes

     site n.  atom      mass           positions (alat units)
        1     Si  28.0860   tau(    1) = (    0.00000    0.00000    0.00000  )
        2     Si  28.0860   tau(    2) = (   -0.25000    0.25000    0.25000  )

     Computing dynamical matrix for
                    q = (   0.6000000  -0.2000000   1.0000000 )

      2 Sym.Ops. (no q -> -q+G )

     G cutoff =  533.5359  (    647 G-vectors)     FFT grid: ( 36, 36, 36)
     G cutoff =  426.8287  (    463 G-vectors)  smooth grid: ( 32, 32, 32)
     number of k points=  1872

     PseudoPot. # 1 for Si read from file:
     ../Pseudo/Si.pbe-rrkj.UPF
     MD5 check sum: cf7ab5690cd9a85b22c4813f7e365554
     Pseudo is Norm-conserving, Zval =  4.0
     Generated by new atomic code, or converted to UPF format
     Using radial grid of  883 points,  3 beta functions with:
                l(1) =   0
                l(2) =   0
                l(3) =   1

     Atomic displacements:
     There are    6 irreducible representations

[...]

     Representation     6      1 modes -  To be done

     Alpha used in Ewald sum =   2.1000

[...]

     Representation #   6 mode #   6

     Self-consistent Calculation

[...]

      thresh= 4.157E-11 alpha_mix =  0.700 |ddv_scf|^2 =  8.413E-21

     End of self-consistent calculation

     Convergence has been achieved

     Number of q in the star =   24
     List of q in the star:
          1   0.600000000  -0.200000000   1.000000000
          2   1.000000000   0.200000000   0.600000000
          3   0.600000000   0.200000000   1.000000000
          4  -0.600000000  -0.200000000   1.000000000
          5  -1.000000000  -0.200000000  -0.600000000
          6  -1.000000000  -0.200000000   0.600000000
          7   0.600000000  -1.000000000   0.200000000
          8  -1.000000000   0.200000000  -0.600000000
          9   1.000000000  -0.600000000   0.200000000
         10  -0.600000000   1.000000000  -0.200000000
         11  -0.600000000  -1.000000000   0.200000000
         12   0.600000000  -1.000000000  -0.200000000
         13  -0.200000000   1.000000000   0.600000000
         14   0.200000000   1.000000000  -0.600000000
         15  -0.200000000  -1.000000000  -0.600000000
         16  -0.600000000   0.200000000   1.000000000
         17   1.000000000   0.600000000  -0.200000000
         18  -1.000000000  -0.600000000  -0.200000000
         19  -1.000000000   0.600000000   0.200000000
         20   0.200000000  -0.600000000   1.000000000
         21   0.200000000  -1.000000000   0.600000000
         22  -0.200000000  -0.600000000   1.000000000
         23  -0.200000000   0.600000000   1.000000000
         24   0.200000000   0.600000000  -1.000000000

     Diagonalizing the dynamical matrix

     q = (    0.600000000  -0.200000000   1.000000000 )

     freq (    1) =       5.373059 [THz] =     179.225943 [cm-1]
     freq (    2) =       5.928155 [THz] =     197.741980 [cm-1]
     freq (    3) =       9.577023 [THz] =     319.455091 [cm-1]
     freq (    4) =      11.700532 [THz] =     390.287736 [cm-1]
     freq (    5) =      13.942320 [THz] =     465.065739 [cm-1]
     freq (    6) =      14.079906 [THz] =     469.655125 [cm-1]

     General routines

     Parallel routines

     INITIALIZATION:

     DYNAMICAL MATRIX:

      General routines

   This run was terminated on:  17:19:32  14Jun2022

   JOB DONE.