     Program PHONON v.6.7MaX starts on 15Nov2021 at 15:42:22

     R & G space division:  proc/nbgrp/npool/nimage =      20
     Waiting for input...
     Reading input from standard input

     Reading xml data from directory:

     ./MoS2.save/
     Message from routine qexsd_readschema :
     input info not found or not readable in xml file
     file Mo.pbe-spn-kjpaw_psl.0.2.UPF: wavefunction(s)  4D renormalized
     file S.pbe-n-kjpaw_psl.0.1.UPF: wavefunction(s)  3P renormalized

     IMPORTANT: XC functional enforced from input :
     Exchange-correlation= PBE
                           (   1   4   3   4   0   0   0)
     Any further DFT definition will be discarded
     Please, verify this is what you really want

     Check: negative core charge=   -0.000001

     negative rho (up, down):  7.752E-08 0.000E+00
     Reading collected, re-writing distributed wavefunctions

     Dynamical matrices for ( 4, 4, 1)  uniform grid of q-points
     (   7 q-points):
       N         xq(1)         xq(2)         xq(3)
       1   0.000000000   0.000000000   0.000000000
       2   0.000000000   0.286400212   0.000000000
       3   0.000000000  -0.572800425   0.000000000
       4   0.247999214   0.143200106   0.000000000
       5   0.247999214   0.429600318   0.000000000
       6  -0.495998429  -0.286400212   0.000000000
       7  -0.495998429   0.000000000   0.000000000

     Calculation of q =    0.0000000   0.0000000   0.0000000

     bravais-lattice index     =            0
     lattice parameter (alat)  =       5.9830  a.u.
     unit-cell volume          =     671.9051 (a.u.)^3
     number of atoms/cell      =            3
     number of atomic types    =            2
     kinetic-energy cut-off    =      50.0000  Ry
     charge density cut-off    =     500.0000  Ry
     convergence threshold     =      1.0E-20
     beta                      =       0.7000
     number of iterations used =            4
     Exchange-correlation= PBE
                           (   1   4   3   4   0   0   0)

     celldm(1)=    5.98300  celldm(2)=    0.00000  celldm(3)=    0.00000
     celldm(4)=    0.00000  celldm(5)=    0.00000  celldm(6)=    0.00000

     crystal axes: (cart. coord. in units of alat)
               a(1) = (  1.0081  0.0000  0.0000 )
               a(2) = ( -0.5040  0.8729  0.0000 )
               a(3) = (  0.0000  0.0000  3.5653 )

     reciprocal axes: (cart. coord. in units 2 pi/alat)
               b(1) = (  0.9920  0.5728  0.0000 )
               b(2) = (  0.0000  1.1456  0.0000 )
               b(3) = (  0.0000  0.0000  0.2805 )

     Atoms inside the unit cell:

     Cartesian axes

     site n.  atom      mass           positions (alat units)
        1     Mo  95.9400   tau(    1) = (    0.00000    0.00305    0.00000  )
        2     S   32.0650   tau(    2) = (    0.00000    0.58502    0.49491  )
        3     S   32.0650   tau(    3) = (    0.00000    0.58502   -0.49491  )

     Computing dynamical matrix for
                    q = (   0.0000000   0.0000000   0.0000000 )

      5 Sym.Ops. (with q -> -q+G )

     G cutoff =  453.3653  (   6351 G-vectors)     FFT grid: ( 45, 45,160)
     G cutoff =  181.3461  (   1611 G-vectors)  smooth grid: ( 27, 27,100)
     number of k points=    91

     PseudoPot. # 1 for Mo read from file:
     ../Pseudo/Mo.pbe-spn-kjpaw_psl.0.2.UPF
     MD5 check sum: 99c4efbabb9e14294ed14bd31c5e2f8a
     Pseudo is Projector augmented-wave + core cor, Zval = 14.0
     Generated using "atomic" code by A. Dal Corso  v.5.0.2 svn rev. 9415
     Shape of augmentation charge: PSQ
     Using radial grid of 1229 points,  6 beta functions with:
                l(1) =   0
                l(2) =   0
                l(3) =   1
                l(4) =   1
                l(5) =   2
                l(6) =   2
     Q(r) pseudized with 0 coefficients

     PseudoPot. # 2 for S  read from file:
     ../Pseudo/S.pbe-n-kjpaw_psl.0.1.UPF
     MD5 check sum: 5138ed5699b2c5d2fdac7c35a9631f5b
     Pseudo is Projector augmented-wave + core cor, Zval =  6.0
     Generated using "atomic" code by A. Dal Corso  v.5.0.2 svn rev. 9415
     Shape of augmentation charge: PSQ
     Using radial grid of 1151 points,  4 beta functions with:
                l(1) =   0
                l(2) =   0
                l(3) =   1
                l(4) =   1
     Q(r) pseudized with 0 coefficients

     Mode symmetry, C_2v (mm2)  point group:

     Electric field:
     Dielectric constant
     Born effective charges in two ways

     Atomic displacements:
     There are    9 irreducible representations

     Representation     1      1 modes -  To be done

[...]

     Alpha used in Ewald sum =   2.8000

     negative rho (up, down):  7.752E-08 0.000E+00

     Electric Fields Calculation

      thresh= 1.000E-02 alpha_mix =  0.700 |ddv_scf|^2 =  7.829E-05

[...]

     End of electric fields calculation

          Dielectric constant in cartesian axis

          (       8.709999167       0.000000000       0.000000000 )
          (       0.000000000       8.705468828       0.000000000 )
          (       0.000000000       0.000000000       1.827199287 )

          Effective charges (d Force / dE) in cartesian axis

           atom      1   Mo
      Ex  (       -1.00556        0.00000        0.00000 )
      Ey  (        0.00000       -0.99708        0.00000 )
      Ez  (        0.00000        0.00000       -0.11262 )
           atom      2   S
      Ex  (        0.50544        0.00000        0.00000 )
      Ey  (        0.00000        0.50458       -0.00023 )
      Ez  (        0.00000        0.00001        0.05469 )
           atom      3   S
      Ex  (        0.50544        0.00000        0.00000 )
      Ey  (        0.00000        0.50458        0.00023 )
      Ez  (        0.00000       -0.00001        0.05469 )

     Representation #   1 mode #   1

     Self-consistent Calculation

[...]

     End of self-consistent calculation

     Convergence has been achieved

[...]

     Number of q in the star =    1
     List of q in the star:
          1   0.000000000   0.000000000   0.000000000

          Dielectric constant in cartesian axis

          (       8.709999167       0.000000000       0.000000000 )
          (       0.000000000       8.705468828       0.000000000 )
          (       0.000000000       0.000000000       1.827199287 )

          Effective charges (d Force / dE) in cartesian axis

[...]

          Effective charges (d P / du) in cartesian axis

           atom      1   Mo
      Px  (       -1.00604        0.00000        0.00000 )
      Py  (        0.00000       -1.00741        0.00000 )
      Pz  (        0.00000        0.00000       -0.11264 )
           atom      2   S
      Px  (        0.50550        0.00000        0.00000 )
      Py  (        0.00000        0.50618       -0.00024 )
      Pz  (        0.00000        0.00001        0.05473 )
           atom      3   S
      Px  (        0.50550        0.00000        0.00000 )
      Py  (        0.00000        0.50618        0.00024 )
      Pz  (        0.00000       -0.00001        0.05473 )

     Diagonalizing the dynamical matrix

     q = (    0.000000000   0.000000000   0.000000000 )

     freq (    1) =       0.304929 [THz] =      10.171352 [cm-1]
     freq (    2) =       0.309044 [THz] =      10.308592 [cm-1]
     freq (    3) =       0.340244 [THz] =      11.349321 [cm-1]
     freq (    4) =       8.274460 [THz] =     276.006275 [cm-1]
     freq (    5) =       8.274914 [THz] =     276.021414 [cm-1]
     freq (    6) =      11.197695 [THz] =     373.514891 [cm-1]
     freq (    7) =      11.198158 [THz] =     373.530351 [cm-1]
     freq (    8) =      11.865452 [THz] =     395.788889 [cm-1]
     freq (    9) =      13.736091 [THz] =     458.186681 [cm-1]

[...]

     freq (   1-   1) =         10.2  [cm-1]   --> A_1  D_1  S_1   I+R
     freq (   2-   2) =         10.3  [cm-1]   --> B_1  D_3  S_3   I+R
     freq (   3-   3) =         11.3  [cm-1]   --> B_2  D_4  S_4   I+R
     freq (   4-   4) =        276.0  [cm-1]   --> A_2  D_2  S_2   R
     freq (   5-   5) =        276.0  [cm-1]   --> B_2  D_4  S_4   I+R
     freq (   6-   6) =        373.5  [cm-1]   --> A_1  D_1  S_1   I+R
     freq (   7-   7) =        373.5  [cm-1]   --> B_1  D_3  S_3   I+R
     freq (   8-   8) =        395.8  [cm-1]   --> A_1  D_1  S_1   I+R
     freq (   9-   9) =        458.2  [cm-1]   --> B_2  D_4  S_4   I+R

[...]

     bravais-lattice index     =            0
     lattice parameter (alat)  =       5.9830  a.u.
     unit-cell volume          =     671.9051 (a.u.)^3
     number of atoms/cell      =            3
     number of atomic types    =            2
     number of electrons       =        26.00
     number of Kohn-Sham states=           13
     kinetic-energy cutoff     =      50.0000  Ry
     charge density cutoff     =     500.0000  Ry
     Exchange-correlation= PBE
                           (   1   4   3   4   0   0   0)

[...]

     atomic species   valence    mass     pseudopotential
        Mo            14.00    95.94000     Mo( 1.00)
        S              6.00    32.06500     S ( 1.00)

      4 Sym. Ops. (no inversion) found

[...]

     site n.     atom                  positions (alat units)
         1           Mo  tau(   1) = (   0.0000000   0.0030498   0.0000000  )
         2           S   tau(   2) = (   0.0000000   0.5850225   0.4949137  )
         3           S   tau(   3) = (   0.0000000   0.5850225  -0.4949137  )

     number of k points=   342

     Number of k-points >= 100: set verbosity='high' to print them.

[...]

     The potential is recalculated from file :
     ./_ph0/MoS2.save/charge-density

     negative rho (up, down):  7.752E-08 0.000E+00
     Starting wfcs are   21 atomic wfcs
     Checking if some PAW data can be deallocated...

     Band Structure Calculation
     Davidson diagonalization with overlap

     ethr =  3.85E-11,  avg # of iterations = 21.1

     End of band structure calculation

     Number of k-points >= 100: set verbosity='high' to print the bands.

     highest occupied level (ev):     2.8095

     Writing output data file ./_ph0/MoS2.save/

[...]

      4 Sym.Ops. (no q -> -q+G )

[...]

     Number of q in the star =    1
     List of q in the star:
          1   0.000000000   0.286400212   0.000000000
     In addition there is the -q list:
          1   0.000000000  -0.286400212   0.000000000

[...]

     freq (   1-   1) =         85.5  [cm-1]   --> B_2  D_4  S_4
     freq (   2-   2) =        109.5  [cm-1]   --> B_1  D_3  S_3
     freq (   3-   3) =        173.6  [cm-1]   --> A_1  D_1  S_1
     freq (   4-   4) =        287.5  [cm-1]   --> A_2  D_2  S_2
     freq (   5-   5) =        314.0  [cm-1]   --> B_2  D_4  S_4
     freq (   6-   6) =        349.1  [cm-1]   --> A_1  D_1  S_1
     freq (   7-   7) =        365.3  [cm-1]   --> B_1  D_3  S_3
     freq (   8-   8) =        399.2  [cm-1]   --> A_1  D_1  S_1
     freq (   9-   9) =        413.2  [cm-1]   --> B_2  D_4  S_4

[...]

     Mode symmetry, C_2v (mm2)  point group:

     freq (   1-   1) =        151.7  [cm-1]   --> B_1  D_3  S_3
     freq (   2-   2) =        167.5  [cm-1]   --> B_2  D_4  S_4
     freq (   3-   3) =        228.8  [cm-1]   --> A_1  D_1  S_1
     freq (   4-   4) =        296.5  [cm-1]   --> A_2  D_2  S_2
     freq (   5-   5) =        321.9  [cm-1]   --> B_2  D_4  S_4
     freq (   6-   6) =        344.4  [cm-1]   --> A_1  D_1  S_1
     freq (   7-   7) =        354.1  [cm-1]   --> B_1  D_3  S_3
     freq (   8-   8) =        375.0  [cm-1]   --> B_2  D_4  S_4
     freq (   9-   9) =        396.4  [cm-1]   --> A_1  D_1  S_1

[...]

     Mode symmetry, C_s (m)     point group:

[...]

     freq (   1-   1) =         85.5  [cm-1]   --> A''
     freq (   2-   2) =        109.5  [cm-1]   --> A'
     freq (   3-   3) =        173.6  [cm-1]   --> A'
     freq (   4-   4) =        287.5  [cm-1]   --> A''
     freq (   5-   5) =        314.0  [cm-1]   --> A''
     freq (   6-   6) =        349.1  [cm-1]   --> A'
     freq (   7-   7) =        365.3  [cm-1]   --> A'
     freq (   8-   8) =        399.2  [cm-1]   --> A'
     freq (   9-   9) =        413.1  [cm-1]   --> A''

[...]

     Number of q in the star =    2
     List of q in the star:
          1   0.247999214   0.429600318   0.000000000
          2  -0.247999214   0.429600318   0.000000000
     In addition there is the -q list:
          1  -0.247999214  -0.429600318   0.000000000
          2   0.247999214  -0.429600318   0.000000000

[...]

     freq (   1-   1) =        157.8  [cm-1]   --> A''
     freq (   2-   2) =        179.9  [cm-1]   --> A'
     freq (   3-   3) =        210.0  [cm-1]   --> A'
     freq (   4-   4) =        310.1  [cm-1]   --> A''
     freq (   5-   5) =        322.8  [cm-1]   --> A''
     freq (   6-   6) =        334.4  [cm-1]   --> A'
     freq (   7-   7) =        364.7  [cm-1]   --> A'
     freq (   8-   8) =        369.8  [cm-1]   --> A''
     freq (   9-   9) =        389.1  [cm-1]   --> A'

[...]

      3 Sym.Ops. (with q -> -q+G )

[...]

     freq (   1-   1) =        151.6  [cm-1]   --> A'
     freq (   2-   2) =        167.5  [cm-1]   --> A''
     freq (   3-   3) =        228.8  [cm-1]   --> A'
     freq (   4-   4) =        296.5  [cm-1]   --> A''
     freq (   5-   5) =        322.0  [cm-1]   --> A''
     freq (   6-   6) =        344.4  [cm-1]   --> A'
     freq (   7-   7) =        354.1  [cm-1]   --> A'
     freq (   8-   8) =        375.0  [cm-1]   --> A''
     freq (   9-   9) =        396.4  [cm-1]   --> A'

     Calculation of q =   -0.4959984   0.0000000   0.0000000

     bravais-lattice index     =            0
     lattice parameter (alat)  =       5.9830  a.u.
     unit-cell volume          =     671.9051 (a.u.)^3
     number of atoms/cell      =            3
     number of atomic types    =            2
     number of electrons       =        26.00
     number of Kohn-Sham states=           13
     kinetic-energy cutoff     =      50.0000  Ry
     charge density cutoff     =     500.0000  Ry
     Exchange-correlation= PBE
                           (   1   4   3   4   0   0   0)

[...]

     atomic species   valence    mass     pseudopotential
        Mo            14.00    95.94000     Mo( 1.00)
        S              6.00    32.06500     S ( 1.00)

      4 Sym. Ops. (no inversion) found

[...]

     site n.     atom                  positions (alat units)
         1           Mo  tau(   1) = (   0.0000000   0.0030498   0.0000000  )
         2           S   tau(   2) = (   0.0000000   0.5850225   0.4949137  )
         3           S   tau(   3) = (   0.0000000   0.5850225  -0.4949137  )

     number of k points=   648

     Number of k-points >= 100: set verbosity='high' to print them.

     Check: negative core charge=   -0.000001

     The potential is recalculated from file :
     ./_ph0/MoS2.save/charge-density

     negative rho (up, down):  7.752E-08 0.000E+00
     Starting wfcs are   21 atomic wfcs
     Checking if some PAW data can be deallocated...

     Band Structure Calculation
     Davidson diagonalization with overlap

     ethr =  3.85E-11,  avg # of iterations = 21.1

     End of band structure calculation

     Number of k-points >= 100: set verbosity='high' to print the bands.

     highest occupied level (ev):     2.8095

     Writing output data file ./_ph0/MoS2.save/

     bravais-lattice index     =            0
     lattice parameter (alat)  =       5.9830  a.u.
     unit-cell volume          =     671.9051 (a.u.)^3
     number of atoms/cell      =            3
     number of atomic types    =            2
     kinetic-energy cut-off    =      50.0000  Ry
     charge density cut-off    =     500.0000  Ry
     convergence threshold     =      1.0E-20
     beta                      =       0.7000
     number of iterations used =            4
     Exchange-correlation= PBE
                           (   1   4   3   4   0   0   0)

     celldm(1)=    5.98300  celldm(2)=    0.00000  celldm(3)=    0.00000
     celldm(4)=    0.00000  celldm(5)=    0.00000  celldm(6)=    0.00000

     crystal axes: (cart. coord. in units of alat)
               a(1) = (  1.0081  0.0000  0.0000 )
               a(2) = ( -0.5040  0.8729  0.0000 )
               a(3) = (  0.0000  0.0000  3.5653 )

     reciprocal axes: (cart. coord. in units 2 pi/alat)
               b(1) = (  0.9920  0.5728  0.0000 )
               b(2) = (  0.0000  1.1456  0.0000 )
               b(3) = (  0.0000  0.0000  0.2805 )

     Atoms inside the unit cell:

     Cartesian axes

     site n.  atom      mass           positions (alat units)
        1     Mo  95.9400   tau(    1) = (    0.00000    0.00305    0.00000  )
        2     S   32.0650   tau(    2) = (    0.00000    0.58502    0.49491  )
        3     S   32.0650   tau(    3) = (    0.00000    0.58502   -0.49491  )

     Computing dynamical matrix for
                    q = (  -0.4959984   0.0000000   0.0000000 )

      2 Sym.Ops. (no q -> -q+G )

     G cutoff =  453.3653  (   6351 G-vectors)     FFT grid: ( 45, 45,160)
     G cutoff =  181.3461  (   1611 G-vectors)  smooth grid: ( 27, 27,100)
     number of k points=   648

     PseudoPot. # 1 for Mo read from file:
     ../Pseudo/Mo.pbe-spn-kjpaw_psl.0.2.UPF
     MD5 check sum: 99c4efbabb9e14294ed14bd31c5e2f8a
     Pseudo is Projector augmented-wave + core cor, Zval = 14.0
     Generated using "atomic" code by A. Dal Corso  v.5.0.2 svn rev. 9415
     Shape of augmentation charge: PSQ
     Using radial grid of 1229 points,  6 beta functions with:
                l(1) =   0
                l(2) =   0
                l(3) =   1
                l(4) =   1
                l(5) =   2
                l(6) =   2
     Q(r) pseudized with 0 coefficients

     PseudoPot. # 2 for S  read from file:
     ../Pseudo/S.pbe-n-kjpaw_psl.0.1.UPF
     MD5 check sum: 5138ed5699b2c5d2fdac7c35a9631f5b
     Pseudo is Projector augmented-wave + core cor, Zval =  6.0
     Generated using "atomic" code by A. Dal Corso  v.5.0.2 svn rev. 9415
     Shape of augmentation charge: PSQ
     Using radial grid of 1151 points,  4 beta functions with:
                l(1) =   0
                l(2) =   0
                l(3) =   1
                l(4) =   1
     Q(r) pseudized with 0 coefficients

[...]

     Atomic displacements:
     There are    9 irreducible representations

[...]

     Representation     9      1 modes -  To be done

     Alpha used in Ewald sum =   2.8000

     negative rho (up, down):  7.752E-08 0.000E+00

[...]

     Representation #   9 mode #   9

     Self-consistent Calculation

[...]

      thresh= 2.263E-11 alpha_mix =  0.700 |ddv_scf|^2 =  2.556E-21

     End of self-consistent calculation

     Convergence has been achieved

     Number of q in the star =    2
     List of q in the star:
          1  -0.495998429   0.000000000   0.000000000
          2   0.495998429   0.000000000   0.000000000

     Diagonalizing the dynamical matrix

     q = (   -0.495998429   0.000000000   0.000000000 )

     freq (    1) =       4.730125 [THz] =     157.779979 [cm-1]
     freq (    2) =       5.392703 [THz] =     179.881224 [cm-1]
     freq (    3) =       6.295610 [THz] =     209.998949 [cm-1]
     freq (    4) =       9.296462 [THz] =     310.096610 [cm-1]
     freq (    5) =       9.677170 [THz] =     322.795642 [cm-1]
     freq (    6) =      10.023545 [THz] =     334.349479 [cm-1]
     freq (    7) =      10.932228 [THz] =     364.659867 [cm-1]
     freq (    8) =      11.084465 [THz] =     369.737950 [cm-1]
     freq (    9) =      11.663681 [THz] =     389.058517 [cm-1]

     Mode symmetry, C_s (m)     point group:

     freq (   1-   1) =        157.8  [cm-1]   --> A''
     freq (   2-   2) =        179.9  [cm-1]   --> A'
     freq (   3-   3) =        210.0  [cm-1]   --> A'
     freq (   4-   4) =        310.1  [cm-1]   --> A''
     freq (   5-   5) =        322.8  [cm-1]   --> A''
     freq (   6-   6) =        334.3  [cm-1]   --> A'
     freq (   7-   7) =        364.7  [cm-1]   --> A'
     freq (   8-   8) =        369.7  [cm-1]   --> A''
     freq (   9-   9) =        389.1  [cm-1]   --> A'

     General routines

     Parallel routines

     INITIALIZATION:

     DYNAMICAL MATRIX:

      General routines

   This run was terminated on:  22:48:28  15Nov2021

   JOB DONE.